325
Lattice="34.73840710549996 0.0 0.0 0.0 22.3 0.0 0.0 0.0 30.0" Properties=species:S:1:pos:R:3:spacegroup_kinds:I:1 spacegroup="P 1" unit_cell=conventional pbc="F F F"
C        0.50000000       0.50000000      10.00000000        0
C        2.95951215       0.50000000      10.00000000        1
C        5.41902429       0.50000000      10.00000000        2
C        7.87853644       0.50000000      10.00000000        3
C       10.33804859       0.50000000      10.00000000        4
C       12.79756073       0.50000000      10.00000000        5
C       15.25707288       0.50000000      10.00000000        6
C       17.71658503       0.50000000      10.00000000        7
C       20.17609718       0.50000000      10.00000000        8
C       22.63560932       0.50000000      10.00000000        9
C       25.09512147       0.50000000      10.00000000       10
C        0.50000000       1.92000000      10.00000000       11
C        2.95951215       1.92000000      10.00000000       12
C        5.41902429       1.92000000      10.00000000       13
C        7.87853644       1.92000000      10.00000000       14
C       10.33804859       1.92000000      10.00000000       15
C       12.79806475       1.89723736      10.00275811       16
C       15.25845924       1.89950079      10.00249830       17
C       17.71533887       1.89996665      10.00022638       18
C       20.18002316       1.89615997      10.00119512       19
C       22.64956381       1.89363299      10.00044118       20
C       25.09512147       1.92000000      10.00000000       21
C        1.72975607       2.63000000      10.00000000       22
C        4.18926822       2.63000000      10.00000000       23
C        6.64878037       2.63000000      10.00000000       24
C        9.10829251       2.63000000      10.00000000       25
C       11.57036442       2.62524354      10.00364149       26
C       14.02725330       2.61532369      10.00326941       27
C       16.48737889       2.62211715      10.00528966       28
C       18.94671275       2.62513533      10.00405261       29
C       21.41875095       2.61404910      10.00273580       30
C       23.92177027       2.64418384      10.00483080       31
C        1.72975607       4.05000000      10.00000000       32
C        4.18926822       4.05000000      10.00000000       33
C        6.64878037       4.05000000      10.00000000       34
C        9.10903800       4.04527508      10.00080125       35
C       11.57192276       4.04091146      10.00505977       36
C       14.02831073       4.03304949      10.00512804       37
C       16.48646916       4.03484418      10.00728481       38
C       18.94478482       4.03863296      10.00737232       39
C       21.41426865       4.03760242      10.00463082       40
C       23.90175141       4.05985722      10.01121427       41
C        0.50000000       4.76000000      10.00000000       42
C        2.95951215       4.76000000      10.00000000       43
C        5.41902429       4.76000000      10.00000000       44
C        7.87853644       4.76000000      10.00000000       45
C       10.33790036       4.76088985      10.00385872       46
C       12.80137859       4.75613043      10.00358566       47
C       15.25665008       4.75053437      10.00286827       48
C       17.71519169       4.75545072      10.00658968       49
C       20.18312644       4.75301203      10.00179765       50
C       22.65163258       4.76019104      10.00844110       51
C       25.05689597       4.83456190      10.01546852       52
C        0.50000000       6.18000000      10.00000000       53
C        2.95951215       6.18000000      10.00000000       54
C        5.41902429       6.18000000      10.00000000       55
C        7.87875526       6.18081924       9.99516338       56
C       10.33852981       6.18091260       9.99640020       57
C       12.79907838       6.18098788       9.99275294       58
C       15.25671870       6.17273807       9.99595147       59
C       17.71741875       6.17682357       9.99724114       60
C       20.18715942       6.17342498       9.99436468       61
C       22.65608462       6.18282782       9.99822029       62
C       25.05032189       6.09082726      10.01078840       63
C        1.72975607       6.89000000      10.00000000       64
C        4.18926822       6.89000000      10.00000000       65
C        6.64878037       6.89000000      10.00000000       66
C        9.10869675       6.89163726       9.98953371       67
C       11.56880868       6.89152894       9.98447410       68
C       14.02928301       6.88781038       9.98715343       69
C       16.48653511       6.88611937       9.99285220       70
C       18.95220324       6.88640312       9.98582052       71
C       21.41869706       6.88867062       9.98963212       72
C       23.90884063       6.88215670       9.99859688       73
C        1.72975607       8.31000000      10.00000000       74
C        4.18926822       8.31000000      10.00000000       75
C        6.64878037       8.31000000      10.00000000       76
C        9.10906451       8.31109376       9.98144601       77
C       11.56964660       8.31115541       9.97487853       78
C       14.02869374       8.30963828       9.97808014       79
C       16.48681239       8.30706856       9.99159130       80
C       18.95399154       8.30767778       9.97789536       81
C       21.42326794       8.31409226       9.97975086       82
C       23.91428429       8.31265966       9.99188986       83
C        0.50000000       9.02000000      10.00000000       84
C        2.95951215       9.02000000      10.00000000       85
C        5.41902429       9.02000000      10.00000000       86
C        7.87910236       9.02040686       9.98608507       87
C       10.33904520       9.02157695       9.98348490       88
C       12.79884223       9.02164154       9.97250803       89
C       15.25821623       9.01945794       9.98509782       90
C       17.71911892       9.01906551       9.97987957       91
C       20.18972495       9.02052442       9.97153002       92
C       22.66564393       9.01851677       9.97741330       93
C       25.06545923       9.09609672      10.00300063       94
C        0.50000000      10.44000000      10.00000000       95
C        2.95951215      10.44000000      10.00000000       96
C        5.41902429      10.44000000      10.00000000       97
C        7.87964706      10.44033658       9.98508390       98
C       10.33968089      10.44055056       9.98338661       99
C       12.79913233      10.44201153       9.97150302      100
C       15.25773182      10.44051998       9.98065058      101
C       17.72122721      10.44093879       9.97457064      102
C       20.19172283      10.44144540       9.97235066      103
C       22.66441253      10.44334037       9.97819791      104
C       25.05605765      10.35515641      10.00082407      105
C        1.72975607      11.15000000      10.00000000      106
C        4.18926822      11.15000000      10.00000000      107
C        6.64878037      11.15000000      10.00000000      108
C        9.10964175      11.14992469       9.98286974      109
C       11.56955323      11.15158320       9.97007082      110
C       14.02895541      11.15137672       9.96809424      111
C       16.48943015      11.15168312       9.97285576      112
C       18.95423985      11.15164331       9.96673552      113
C       21.42456896      11.14971710       9.97796164      114
C       23.91294187      11.14774435       9.98879297      115
C        1.72975607      12.57000000      10.00000000      116
C        4.18926822      12.57000000      10.00000000      117
C        6.64878037      12.57000000      10.00000000      118
C        9.10922259      12.57010711       9.98180843      119
C       11.56989462      12.57171050       9.97046012      120
C       14.02766283      12.57203448       9.96841260      121
C       16.48783424      12.57352368       9.96873655      122
C       18.95184090      12.57194723       9.97554009      123
C       21.42502691      12.57727187       9.97262057      124
C       23.91313594      12.57916860       9.99002301      125
C        0.50000000      13.28000000      10.00000000      126
C        2.95951215      13.28000000      10.00000000      127
C        5.41902429      13.28000000      10.00000000      128
C        7.87956533      13.27985321       9.99187449      129
C       10.33944758      13.28074102       9.97793685      130
C       12.79905656      13.28249920       9.97386029      131
C       15.25647446      13.28382693       9.97092197      132
C       17.71790665      13.28457292       9.97477026      133
C       20.18856146      13.28005859       9.97108217      134
C       22.66512313      13.28543669       9.97934560      135
C       25.06604553      13.36175784       9.99967478      136
C        0.50000000      14.70000000      10.00000000      137
C        2.95951215      14.70000000      10.00000000      138
C        5.41902429      14.70000000      10.00000000      139
C        7.87898821      14.69972390       9.98637956      140
C       10.33987917      14.70036442       9.98228723      141
C       12.79892344      14.70343950       9.97989623      142
C       15.25546746      14.70529404       9.97452847      143
C       17.71607267      14.70669975       9.98061317      144
C       20.18369204      14.69915303       9.97628228      145
C       22.66337855      14.71206912       9.98196347      146
C       25.05319936      14.62123558      10.00370959      147
C        1.72975607      15.41000000      10.00000000      148
C        4.18926822      15.41000000      10.00000000      149
C        6.64878037      15.41000000      10.00000000      150
C        9.11026293      15.40877025       9.98210386      151
C       11.57143582      15.41271997       9.98053526      152
C       14.02683630      15.41696150       9.98088715      153
C       16.48435485      15.41914546       9.98476943      154
C       18.94701289      15.41568646       9.98261006      155
C       21.41851743      15.40705295       9.98395054      156
C       23.91221037      15.42364702       9.99436836      157
C        1.72975607      16.83000000      10.00000000      158
C        4.18926822      16.83000000      10.00000000      159
C        6.64878037      16.83000000      10.00000000      160
C        9.11196971      16.82873946       9.99467936      161
C       11.57539797      16.83669043       9.98612623      162
C       14.02667786      16.84392835       9.99101533      163
C       16.48382719      16.84337358       9.99320125      164
C       18.94447553      16.84069050       9.99440568      165
C       21.41707561      16.83425289       9.99844523      166
C       23.90381950      16.85985147       9.99716454      167
C        0.50000000      17.54000000      10.00000000      168
C        2.95951215      17.54000000      10.00000000      169
C        5.41902429      17.54000000      10.00000000      170
C        7.87821899      17.53295064       9.99730413      171
C       10.34746812      17.53697854       9.99956945      172
C       12.79804433      17.55657273       9.99239204      173
C       15.25825555      17.55365277      10.00201591      174
C       17.71128700      17.55806615       9.99746266      175
C       20.18641867      17.54721926      10.00135488      176
C       22.65243017      17.55756130       9.99776651      177
C       25.04365110      17.66361991      10.00643323      178
C        0.50000000      18.96000000      10.00000000      179
C        2.95951215      18.96000000      10.00000000      180
C        5.41902429      18.96000000      10.00000000      181
C        7.87929969      18.95260289      10.00027376      182
C       10.35659914      18.97001731      10.00201030      183
C       12.79842354      18.98919473      10.00031030      184
C       15.26533946      18.99218518      10.00332311      185
C       17.71577497      18.98771865      10.00191819      186
C       20.18948350      18.98159433      10.00487092      187
C       22.64437212      18.99259533      10.00356399      188
C       25.01754848      18.92721861      10.00672063      189
C        1.72975607      19.67000000      10.00000000      190
C        4.18926822      19.67000000      10.00000000      191
C        6.64878037      19.67000000      10.00000000      192
C        9.11186693      19.65836854      10.00108389      193
C       11.57191196      19.70677863      10.00089638      194
C       14.02976305      19.69503071      10.00165094      195
C       16.48768657      19.71202537      10.00244961      196
C       18.94606573      19.68882246      10.00232799      197
C       21.41650636      19.69655916      10.00320643      198
C       23.88498939      19.72671548      10.00256179      199
C        1.72975607      21.09000000      10.00000000      200
C        4.18926822      21.09000000      10.00000000      201
C        6.64878037      21.09000000      10.00000000      202
C        9.10829251      21.09000000      10.00000000      203
C       11.56775909      21.15021291      10.00111751      204
C       14.02714868      21.15041459      10.00034890      205
C       16.48662688      21.15236628      10.00102186      206
C       18.94662586      21.14980829      10.00088673      207
C       21.40517940      21.14633011      10.00058192      208
C       23.86491870      21.17549532      10.00089591      209
C        0.50000000      21.80000000      10.00000000      210
C        2.95951215      21.80000000      10.00000000      211
C        5.41902429      21.80000000      10.00000000      212
C        7.87853644      21.80000000      10.00000000      213
C       10.33804859      21.80000000      10.00000000      214
C       12.79756073      21.80000000      10.00000000      215
C       15.25707288      21.80000000      10.00000000      216
C       17.71658503      21.80000000      10.00000000      217
C       20.17609718      21.80000000      10.00000000      218
C       22.63560932      21.80000000      10.00000000      219
C       25.09512147      21.80000000      10.00000000      220
Mo       5.86395604       5.97136309      14.91566634      221
Mo       2.60130711       7.23055099      15.04269990      222
S        6.84690391       7.21110619      13.28356021      223
S        3.87565722       5.66277199      13.61589990      224
S        4.74191610       7.23055099      16.30317510      225
S        1.93541417       5.66277199      16.71885000      226
Mo       8.47621413       7.23312935      15.07337927      227
S        9.59759975       5.26842425      13.81766474      228
S       10.39412434       7.25932072      16.66329300      229
S        7.46558550       5.45528916      16.46291648      230
Mo       5.99118884       8.79658113      14.95547359      231
Mo       6.03684031      11.92436517      14.95659866      232
Mo       5.99154723      15.07940120      14.95448419      233
Mo       2.60130711      10.36611000      15.04269990      234
Mo       2.60130711      13.50166900      15.04269990      235
Mo       2.60130711      16.63722801      15.04269990      236
S        6.77543792      10.37006896      13.34612412      237
S        6.75401805      13.51631349      13.32355271      238
S        6.82125045      16.79492031      13.49260304      239
S        3.87565722       8.79833100      13.61589990      240
S        3.87565722      11.93389000      13.61589990      241
S        3.87565722      15.06944901      13.61589990      242
S        4.74191610      10.36611000      16.30317510      243
S        4.74191610      13.50166900      16.30317510      244
S        4.74191610      16.63722801      16.30317510      245
S        1.93541417       8.79833100      16.71885000      246
S        1.93541417      11.93389000      16.71885000      247
S        1.93541417      15.06944901      16.71885000      248
Mo       8.58488021      10.34208865      15.02360110      249
Mo       8.51827385      13.46563605      15.05108183      250
Mo       8.55014049      16.19489757      14.91080050      251
S        9.50099767       8.67743183      13.42657991      252
S        9.53339868      11.92920617      13.45483722      253
S        9.55862104      14.95467479      13.28742457      254
S       10.42904107      10.42964957      16.63222430      255
S       10.39822089      13.59957075      16.61168985      256
S       10.35716498      17.13915532      15.90284639      257
S        7.68400029       8.80472273      16.68010464      258
S        7.66487094      11.91711065      16.66864952      259
S        7.61966258      15.08030508      16.68153771      260
Mo      11.36349765       8.87641730      15.06738048        0
Mo      11.34277806      15.03669096      14.97999817        0
Mo      11.38101730      12.00283029      15.05467084        0
Mo      11.32303230       6.15962943      14.93986062        0
S       12.32044580       7.37103424      13.26668686        0
S       12.39693129      13.60244545      13.44274494        0
S       12.28949306      10.40913487      13.46022932        0
S       12.47961096      16.94957420      13.65902980        0
S       13.06865039       5.15108187      15.99339138        0
S       13.24456513       8.68598796      16.66600940        0
S       13.21938126      11.90503152      16.71673632        0
S       13.15621454      15.09000116      16.67205371        0
Mo      14.01304872      10.40607915      15.08482389        0
Mo      13.99343592       7.21870308      15.00298532        0
Mo      14.14436206      16.10503958      14.91621628        0
Mo      14.17079538      13.40653831      15.12087405        0
S       15.13174818      14.86988904      13.27554002        0
S       15.30845834       8.63988663      13.65718499        0
S       15.12007027      11.85321364      13.50547907        0
S       15.20876391       5.39123221      13.60908562        0
S       15.92008344      17.15927116      15.80014187        0
S       16.04804340      13.60763871      16.65981427        0
S       16.06329570      10.36849247      16.57786189        0
S       16.00637724       7.28713809      16.57136066        0
Mo      16.95663178      15.00568922      14.94180635        0
Mo      17.04320276      12.04308006      15.08953099        0
Mo      16.91604781       6.22340648      14.79921996        0
S       18.04078481      13.57109507      13.44306463        0
Mo      17.34150601       8.93204780      15.11434974        0
S       18.14835515       7.40701019      13.32382966        0
S       18.00139472      10.47430307      13.49584670        0
S       18.09572602      16.88965240      13.64382132        0
S       19.06019170       8.70511589      16.74488656        0
S       18.60314448       5.21988110      16.05851795        0
S       18.87469697      11.90363433      16.70092403        0
S       18.75986364      15.09907753      16.65508839        0
Mo      19.83391227      10.33427062      15.09564191        0
Mo      19.81375403       7.17814106      15.08149647        0
Mo      19.78230672      16.11768393      14.92389604        0
Mo      19.81960559      13.43774960      15.13334281        0
S       20.70366932      14.88080209      13.23640113        0
S       20.75497019       8.69696514      13.42689924        0
S       20.72822478      11.90392809      13.46609027        0
S       20.98575555       5.31073911      13.75089787        0
S       21.72161632      13.64105791      16.60644829        0
S       21.61775597      17.09847826      15.88134104        0
S       21.69361646       7.30404210      16.67045121        0
S       21.77982040      10.44860893      16.64788386        0
Mo      22.55610818       8.89220500      15.01766933        0
Mo      22.53749302      12.03078267      15.01913748        0
Mo      22.51685330      14.97438411      14.79537599        0
Mo      22.61119867       6.19242778      14.91217584        0
S       23.79971778       7.47184485      13.28685994        0
S       23.81706759      13.44245109      13.44194145        0
S       23.62798461      10.44956409      13.36908793        0
S       23.75140540      16.69923966      13.36275163        0
S       24.42435903       5.34396617      16.28929051        0
S       24.58633849       8.65315544      16.71796643        0
S       24.60668944      11.99344877      16.66998423        0
S       24.29356258      15.09709676      16.60935496        0
Mo      24.96247842      10.31269180      15.14736938        0
Mo      25.23189578       7.15416282      15.10042920        0
Mo      25.11361757      16.45176061      15.04660752        0
Mo      25.44999340      13.57710665      15.27355404        0
