261
Lattice="34.73840710549996 0.0 0.0 0.0 22.3 0.0 0.0 0.0 30.0" Properties=species:S:1:pos:R:3:spacegroup_kinds:I:1 spacegroup="P 1" unit_cell=conventional pbc="F F F"
C        0.50000000       0.50000000      10.00000000        0
C        2.95951215       0.50000000      10.00000000        1
C        5.41902429       0.50000000      10.00000000        2
C        7.87853644       0.50000000      10.00000000        3
C       10.33804859       0.50000000      10.00000000        4
C       12.79756073       0.50000000      10.00000000        5
C       15.25707288       0.50000000      10.00000000        6
C       17.71658503       0.50000000      10.00000000        7
C       20.17609718       0.50000000      10.00000000        8
C       22.63560932       0.50000000      10.00000000        9
C       25.09512147       0.50000000      10.00000000       10
C        0.50000000       1.92000000      10.00000000       11
C        2.95951215       1.92000000      10.00000000       12
C        5.41902429       1.92000000      10.00000000       13
C        7.87853644       1.92000000      10.00000000       14
C       10.33804859       1.92000000      10.00000000       15
C       12.79756073       1.92000000      10.00000000       16
C       15.25707288       1.92000000      10.00000000       17
C       17.71658503       1.92000000      10.00000000       18
C       20.17609718       1.92000000      10.00000000       19
C       22.63560932       1.92000000      10.00000000       20
C       25.09512147       1.92000000      10.00000000       21
C        1.72975607       2.63000000      10.00000000       22
C        4.18926822       2.63000000      10.00000000       23
C        6.64878037       2.63000000      10.00000000       24
C        9.10829251       2.63000000      10.00000000       25
C       11.56780466       2.63000000      10.00000000       26
C       14.02731681       2.63000000      10.00000000       27
C       16.48682896       2.63000000      10.00000000       28
C       18.94634110       2.63000000      10.00000000       29
C       21.40585325       2.63000000      10.00000000       30
C       23.86536540       2.63000000      10.00000000       31
C        1.72975607       4.05000000      10.00000000       32
C        4.18926822       4.05000000      10.00000000       33
C        6.64878037       4.05000000      10.00000000       34
C        9.10829251       4.05000000      10.00000000       35
C       11.56780466       4.05000000      10.00000000       36
C       14.02731681       4.05000000      10.00000000       37
C       16.48682896       4.05000000      10.00000000       38
C       18.94634110       4.05000000      10.00000000       39
C       21.40585325       4.05000000      10.00000000       40
C       23.86536540       4.05000000      10.00000000       41
C        0.50000000       4.76000000      10.00000000       42
C        2.95951215       4.76000000      10.00000000       43
C        5.41902429       4.76000000      10.00000000       44
C        7.87853644       4.76000000      10.00000000       45
C       10.33804859       4.76000000      10.00000000       46
C       12.79756073       4.76000000      10.00000000       47
C       15.25707288       4.76000000      10.00000000       48
C       17.71658503       4.76000000      10.00000000       49
C       20.17609718       4.76000000      10.00000000       50
C       22.63560932       4.76000000      10.00000000       51
C       25.09512147       4.76000000      10.00000000       52
C        0.50000000       6.18000000      10.00000000       53
C        2.95951215       6.18000000      10.00000000       54
C        5.41902429       6.18000000      10.00000000       55
C        7.87853644       6.18000000      10.00000000       56
C       10.33804859       6.18000000      10.00000000       57
C       12.79756073       6.18000000      10.00000000       58
C       15.25707288       6.18000000      10.00000000       59
C       17.71658503       6.18000000      10.00000000       60
C       20.17609718       6.18000000      10.00000000       61
C       22.63560932       6.18000000      10.00000000       62
C       25.09512147       6.18000000      10.00000000       63
C        1.72975607       6.89000000      10.00000000       64
C        4.18926822       6.89000000      10.00000000       65
C        6.64878037       6.89000000      10.00000000       66
C        9.10829251       6.89000000      10.00000000       67
C       11.56780466       6.89000000      10.00000000       68
C       14.02731681       6.89000000      10.00000000       69
C       16.48682896       6.89000000      10.00000000       70
C       18.94634110       6.89000000      10.00000000       71
C       21.40585325       6.89000000      10.00000000       72
C       23.86536540       6.89000000      10.00000000       73
C        1.72975607       8.31000000      10.00000000       74
C        4.18926822       8.31000000      10.00000000       75
C        6.64878037       8.31000000      10.00000000       76
C        9.10829251       8.31000000      10.00000000       77
C       11.56780466       8.31000000      10.00000000       78
C       14.02731681       8.31000000      10.00000000       79
C       16.48682896       8.31000000      10.00000000       80
C       18.94634110       8.31000000      10.00000000       81
C       21.40585325       8.31000000      10.00000000       82
C       23.86536540       8.31000000      10.00000000       83
C        0.50000000       9.02000000      10.00000000       84
C        2.95951215       9.02000000      10.00000000       85
C        5.41902429       9.02000000      10.00000000       86
C        7.87853644       9.02000000      10.00000000       87
C       10.33804859       9.02000000      10.00000000       88
C       12.79756073       9.02000000      10.00000000       89
C       15.25707288       9.02000000      10.00000000       90
C       17.71658503       9.02000000      10.00000000       91
C       20.17609718       9.02000000      10.00000000       92
C       22.63560932       9.02000000      10.00000000       93
C       25.09512147       9.02000000      10.00000000       94
C        0.50000000      10.44000000      10.00000000       95
C        2.95951215      10.44000000      10.00000000       96
C        5.41902429      10.44000000      10.00000000       97
C        7.87853644      10.44000000      10.00000000       98
C       10.33804859      10.44000000      10.00000000       99
C       12.79756073      10.44000000      10.00000000      100
C       15.25707288      10.44000000      10.00000000      101
C       17.71658503      10.44000000      10.00000000      102
C       20.17609718      10.44000000      10.00000000      103
C       22.63560932      10.44000000      10.00000000      104
C       25.09512147      10.44000000      10.00000000      105
C        1.72975607      11.15000000      10.00000000      106
C        4.18926822      11.15000000      10.00000000      107
C        6.64878037      11.15000000      10.00000000      108
C        9.10829251      11.15000000      10.00000000      109
C       11.56780466      11.15000000      10.00000000      110
C       14.02731681      11.15000000      10.00000000      111
C       16.48682896      11.15000000      10.00000000      112
C       18.94634110      11.15000000      10.00000000      113
C       21.40585325      11.15000000      10.00000000      114
C       23.86536540      11.15000000      10.00000000      115
C        1.72975607      12.57000000      10.00000000      116
C        4.18926822      12.57000000      10.00000000      117
C        6.64878037      12.57000000      10.00000000      118
C        9.10829251      12.57000000      10.00000000      119
C       11.56780466      12.57000000      10.00000000      120
C       14.02731681      12.57000000      10.00000000      121
C       16.48682896      12.57000000      10.00000000      122
C       18.94634110      12.57000000      10.00000000      123
C       21.40585325      12.57000000      10.00000000      124
C       23.86536540      12.57000000      10.00000000      125
C        0.50000000      13.28000000      10.00000000      126
C        2.95951215      13.28000000      10.00000000      127
C        5.41902429      13.28000000      10.00000000      128
C        7.87853644      13.28000000      10.00000000      129
C       10.33804859      13.28000000      10.00000000      130
C       12.79756073      13.28000000      10.00000000      131
C       15.25707288      13.28000000      10.00000000      132
C       17.71658503      13.28000000      10.00000000      133
C       20.17609718      13.28000000      10.00000000      134
C       22.63560932      13.28000000      10.00000000      135
C       25.09512147      13.28000000      10.00000000      136
C        0.50000000      14.70000000      10.00000000      137
C        2.95951215      14.70000000      10.00000000      138
C        5.41902429      14.70000000      10.00000000      139
C        7.87853644      14.70000000      10.00000000      140
C       10.33804859      14.70000000      10.00000000      141
C       12.79756073      14.70000000      10.00000000      142
C       15.25707288      14.70000000      10.00000000      143
C       17.71658503      14.70000000      10.00000000      144
C       20.17609718      14.70000000      10.00000000      145
C       22.63560932      14.70000000      10.00000000      146
C       25.09512147      14.70000000      10.00000000      147
C        1.72975607      15.41000000      10.00000000      148
C        4.18926822      15.41000000      10.00000000      149
C        6.64878037      15.41000000      10.00000000      150
C        9.10829251      15.41000000      10.00000000      151
C       11.56780466      15.41000000      10.00000000      152
C       14.02731681      15.41000000      10.00000000      153
C       16.48682896      15.41000000      10.00000000      154
C       18.94634110      15.41000000      10.00000000      155
C       21.40585325      15.41000000      10.00000000      156
C       23.86536540      15.41000000      10.00000000      157
C        1.72975607      16.83000000      10.00000000      158
C        4.18926822      16.83000000      10.00000000      159
C        6.64878037      16.83000000      10.00000000      160
C        9.10829251      16.83000000      10.00000000      161
C       11.56780466      16.83000000      10.00000000      162
C       14.02731681      16.83000000      10.00000000      163
C       16.48682896      16.83000000      10.00000000      164
C       18.94634110      16.83000000      10.00000000      165
C       21.40585325      16.83000000      10.00000000      166
C       23.86536540      16.83000000      10.00000000      167
C        0.50000000      17.54000000      10.00000000      168
C        2.95951215      17.54000000      10.00000000      169
C        5.41902429      17.54000000      10.00000000      170
C        7.87853644      17.54000000      10.00000000      171
C       10.33804859      17.54000000      10.00000000      172
C       12.79756073      17.54000000      10.00000000      173
C       15.25707288      17.54000000      10.00000000      174
C       17.71658503      17.54000000      10.00000000      175
C       20.17609718      17.54000000      10.00000000      176
C       22.63560932      17.54000000      10.00000000      177
C       25.09512147      17.54000000      10.00000000      178
C        0.50000000      18.96000000      10.00000000      179
C        2.95951215      18.96000000      10.00000000      180
C        5.41902429      18.96000000      10.00000000      181
C        7.87853644      18.96000000      10.00000000      182
C       10.33804859      18.96000000      10.00000000      183
C       12.79756073      18.96000000      10.00000000      184
C       15.25707288      18.96000000      10.00000000      185
C       17.71658503      18.96000000      10.00000000      186
C       20.17609718      18.96000000      10.00000000      187
C       22.63560932      18.96000000      10.00000000      188
C       25.09512147      18.96000000      10.00000000      189
C        1.72975607      19.67000000      10.00000000      190
C        4.18926822      19.67000000      10.00000000      191
C        6.64878037      19.67000000      10.00000000      192
C        9.10829251      19.67000000      10.00000000      193
C       11.56780466      19.67000000      10.00000000      194
C       14.02731681      19.67000000      10.00000000      195
C       16.48682896      19.67000000      10.00000000      196
C       18.94634110      19.67000000      10.00000000      197
C       21.40585325      19.67000000      10.00000000      198
C       23.86536540      19.67000000      10.00000000      199
C        1.72975607      21.09000000      10.00000000      200
C        4.18926822      21.09000000      10.00000000      201
C        6.64878037      21.09000000      10.00000000      202
C        9.10829251      21.09000000      10.00000000      203
C       11.56780466      21.09000000      10.00000000      204
C       14.02731681      21.09000000      10.00000000      205
C       16.48682896      21.09000000      10.00000000      206
C       18.94634110      21.09000000      10.00000000      207
C       21.40585325      21.09000000      10.00000000      208
C       23.86536540      21.09000000      10.00000000      209
C        0.50000000      21.80000000      10.00000000      210
C        2.95951215      21.80000000      10.00000000      211
C        5.41902429      21.80000000      10.00000000      212
C        7.87853644      21.80000000      10.00000000      213
C       10.33804859      21.80000000      10.00000000      214
C       12.79756073      21.80000000      10.00000000      215
C       15.25707288      21.80000000      10.00000000      216
C       17.71658503      21.80000000      10.00000000      217
C       20.17609718      21.80000000      10.00000000      218
C       22.63560932      21.80000000      10.00000000      219
C       25.09512147      21.80000000      10.00000000      220
Mo       6.01611319       5.66277199      14.87645010      221
Mo       2.60130711       7.23055099      15.04269990      222
S        6.68188230       7.23055099      13.20000000      223
S        3.87565722       5.66277199      13.61589990      224
S        4.74191610       7.23055099      16.30317510      225
S        1.93541417       5.66277199      16.71885000      226
Mo       8.26058211       7.23055099      15.04269990      227
S        9.53493222       5.66277199      13.61589990      228
S       10.40119110       7.23055099      16.30317510      229
S        7.59468917       5.66277199      16.71885000      230
Mo       6.01611319       8.79833100      14.87645010      231
Mo       6.01611319      11.93389000      14.87645010      232
Mo       6.01611319      15.06944901      14.87645010      233
Mo       2.60130711      10.36611000      15.04269990      234
Mo       2.60130711      13.50166900      15.04269990      235
Mo       2.60130711      16.63722801      15.04269990      236
S        6.68188230      10.36611000      13.20000000      237
S        6.68188230      13.50166900      13.20000000      238
S        6.68188230      16.63722801      13.20000000      239
S        3.87565722       8.79833100      13.61589990      240
S        3.87565722      11.93389000      13.61589990      241
S        3.87565722      15.06944901      13.61589990      242
S        4.74191610      10.36611000      16.30317510      243
S        4.74191610      13.50166900      16.30317510      244
S        4.74191610      16.63722801      16.30317510      245
S        1.93541417       8.79833100      16.71885000      246
S        1.93541417      11.93389000      16.71885000      247
S        1.93541417      15.06944901      16.71885000      248
Mo       8.26058211      10.36611000      15.04269990      249
Mo       8.26058211      13.50166900      15.04269990      250
Mo       8.26058211      16.63722801      15.04269990      251
S        9.53493222       8.79833100      13.61589990      252
S        9.53493222      11.93389000      13.61589990      253
S        9.53493222      15.06944901      13.61589990      254
S       10.40119110      10.36611000      16.30317510      255
S       10.40119110      13.50166900      16.30317510      256
S       10.40119110      16.63722801      16.30317510      257
S        7.59468917       8.79833100      16.71885000      258
S        7.59468917      11.93389000      16.71885000      259
S        7.59468917      15.06944901      16.71885000      260
