96
Lattice="7.69855772117656 0.0 0.0 0.0 15.39711544235312 0.0 0.0 0.0 24.970181517499995" Properties=species:S:1:pos:R:3:spacegroup_kinds:I:1 spacegroup="P 1" unit_cell=conventional occupancy="_JSON {\"0\": {\"Si\": 1.0}, \"1\": {\"Si\": 1.0}, \"2\": {\"Si\": 1.0}, \"3\": {\"Si\": 1.0}, \"4\": {\"Si\": 1.0}, \"5\": {\"Si\": 1.0}, \"6\": {\"Si\": 1.0}, \"7\": {\"Si\": 1.0}, \"8\": {\"Si\": 1.0}, \"9\": {\"Si\": 1.0}, \"10\": {\"Si\": 1.0}, \"11\": {\"Si\": 1.0}, \"12\": {\"Si\": 1.0}, \"13\": {\"Si\": 1.0}, \"14\": {\"Si\": 1.0}, \"15\": {\"Si\": 1.0}, \"16\": {\"Si\": 1.0}, \"17\": {\"Si\": 1.0}, \"18\": {\"Si\": 1.0}, \"19\": {\"Si\": 1.0}, \"20\": {\"Si\": 1.0}, \"21\": {\"Si\": 1.0}, \"22\": {\"Si\": 1.0}, \"23\": {\"Si\": 1.0}, \"24\": {\"Si\": 1.0}, \"25\": {\"Si\": 1.0}, \"26\": {\"Si\": 1.0}, \"27\": {\"Si\": 1.0}, \"28\": {\"Si\": 1.0}, \"29\": {\"Si\": 1.0}, \"30\": {\"Si\": 1.0}, \"31\": {\"Si\": 1.0}, \"32\": {\"Si\": 1.0}, \"33\": {\"Si\": 1.0}, \"34\": {\"Si\": 1.0}, \"35\": {\"Si\": 1.0}, \"36\": {\"Si\": 1.0}, \"37\": {\"Si\": 1.0}, \"38\": {\"Si\": 1.0}, \"39\": {\"Si\": 1.0}, \"40\": {\"Si\": 1.0}, \"41\": {\"Si\": 1.0}, \"42\": {\"Si\": 1.0}, \"43\": {\"Si\": 1.0}, \"44\": {\"Si\": 1.0}, \"45\": {\"Si\": 1.0}, \"46\": {\"Si\": 1.0}, \"47\": {\"Si\": 1.0}, \"48\": {\"Si\": 1.0}, \"49\": {\"Si\": 1.0}, \"50\": {\"Si\": 1.0}, \"51\": {\"Si\": 1.0}, \"52\": {\"Si\": 1.0}, \"53\": {\"Si\": 1.0}, \"54\": {\"Si\": 1.0}, \"55\": {\"Si\": 1.0}, \"56\": {\"Si\": 1.0}, \"57\": {\"Si\": 1.0}, \"58\": {\"Si\": 1.0}, \"59\": {\"Si\": 1.0}, \"60\": {\"Si\": 1.0}, \"61\": {\"Si\": 1.0}, \"62\": {\"Si\": 1.0}, \"63\": {\"Si\": 1.0}}" pbc="T T F"
Si       0.00000000       1.92463943       4.08277678        0
Si       0.00000000       0.00000000       0.00000000        1
Si       1.92463943       0.00000000       1.36092559        2
Si       1.92463943       1.92463943       2.72185118        3
Si      -0.00134487       1.92313208       9.53776372        4
Si       0.00000000       0.00000000       5.44370237        5
Si       1.92508026       0.00063750       6.81348597        6
Si       1.92477370       1.92492256       8.18034975        7
Si       0.00000000       5.77391829       4.08277678        8
Si       0.00000000       3.84927886       0.00000000        9
Si       1.92463943       3.84927886       1.36092559       10
Si       1.92463943       5.77391829       2.72185118       11
Si      -0.00087854       5.77425891       9.53976542       12
Si       0.00000021       3.84923653       5.44651910       13
Si       1.92505268       3.84998509       6.81543822       14
Si       1.92448555       5.77667049       8.17801844       15
Si       0.00000000       9.62319715       4.08277678       16
Si       0.00000000       7.69855772       0.00000000       17
Si       1.92463943       7.69855772       1.36092559       18
Si       1.92463943       9.62319715       2.72185118       19
Si      -0.00038273       9.62281844       9.53264086       20
Si      -0.00000008       7.69855779       5.43629200       21
Si       1.92382749       7.69883116       6.81467501       22
Si       1.92446095       9.62265063       8.18122726       23
Si       0.00000000      13.47247601       4.08277678       24
Si       0.00000000      11.54783658       0.00000000       25
Si       1.92463943      11.54783658       1.36092559       26
Si       1.92463943      13.47247601       2.72185118       27
Si      -0.00106222      13.47291544       9.53617356       28
Si      -0.00000004      11.54780069       5.44753812       29
Si       1.92560927      11.54883073       6.81718588       30
Si       1.92501895      13.47430726       8.17669581       31
Si       3.84927886       1.92463943       4.08277678       32
Si       3.84927886       0.00000000       0.00000000       33
Si       5.77391829       0.00000000       1.36092559       34
Si       5.77391829       1.92463943       2.72185118       35
Si       3.85107914       1.92341268       9.54578486       36
Si       3.84927872      -0.00000028       5.43954569       37
Si       5.77333116       0.00058936       6.80426641       38
Si       5.77340773       1.92542052       8.17418069       39
Si       3.84927886       5.77391829       4.08277678       40
Si       3.84927886       3.84927886       0.00000000       41
Si       5.77391829       3.84927886       1.36092559       42
Si       5.77391829       5.77391829       2.72185118       43
Si       3.85024545       5.77454858       9.54504766       44
Si       3.84927855       3.84935222       5.44629424       45
Si       5.77325511       3.84867098       6.80797072       46
Si       5.77431370       5.77569879       8.17062846       47
Si       3.84927886       9.62319715       4.08277678       48
Si       3.84927886       7.69855772       0.00000000       49
Si       5.77391829       7.69855772       1.36092559       50
Si       5.77391829       9.62319715       2.72185118       51
Si       3.84901713       9.62280016       9.54835451       52
Si       3.84927871       7.69855780       5.44040406       53
Si       5.77529872       7.69852870       6.80395276       54
Si       5.77428412       9.62284990       8.17600416       55
Si       3.84927886      13.47247601       4.08277678       56
Si       3.84927886      11.54783658       0.00000000       57
Si       5.77391829      11.54783658       1.36092559       58
Si       5.77391829      13.47247601       2.72185118       59
Si       3.85005038      13.47132416       9.54484192       60
Si       3.84927883      11.54773225       5.44666219       61
Si       5.77303064      11.55020066       6.81249641       62
Si       5.77337969      13.47363186       8.17103276       63
Si      -0.00094509      -0.00301212      10.89279630        0
Si       3.84962015      -0.00150009      10.90008148        0
Si      -0.00113992       7.70148123      10.89266645        0
Si       3.85087908       7.69958095      10.90097448        0
Si       3.84956610       3.84838654      10.90029862        0
Si      -0.00066064       3.84929104      10.89451878        0
Si       3.85041105      11.54491896      10.90331654        0
Si      -0.00093672      11.54461548      10.89301664        0
Si       5.77568553       7.70034023      12.26937860        0
Si       5.77688030      11.54128290      12.26948129        0
Si       5.77572072       3.84801394      12.26643688        0
Si       5.77413173      -0.00452604      12.26702753        0
Si       1.92409772       7.69847047      12.26816784        0
Si       1.92195076      11.54376899      12.26817164        0
Si       1.92378196      -0.00485538      12.26651021        0
Si       1.92237590       3.84717263      12.26546316        0
Si       1.91298540       5.77617650      13.62209746        0
Si       5.78590916       5.77702333      13.62273220        0
Si       1.91289381      13.46577090      13.62245587        0
Si       5.78516084      13.46496534      13.62187134        0
Si       1.91849249       9.61918223      13.62336378        0
Si       5.76382123       1.92193984      13.61049132        0
Si       5.78266837       9.61826145      13.62658936        0
Si       1.93466442       1.92143356      13.61029730        0
Si       0.00256127       9.51071344      15.01499843        0
Si       0.00057476       5.93159722      14.98924012        0
Si      -0.00051179      13.41213112      14.98436073        0
Si       0.00015847       1.92251717      14.98146682        0
Si       3.84814986       9.54674890      14.97663500        0
Si       3.84919995       5.85339702      14.97334246        0
Si       3.84887710      13.42432128      14.97565840        0
Si       3.84927900       1.92160350      14.96587491        0
