678
Lattice="96.0829251508124 0.0 0.0 0.0 22.3 0.0 0.0 0.0 20.0" Properties=species:S:1:pos:R:3:spacegroup_kinds:I:1 spacegroup="P 1" unit_cell=conventional pbc="F T F"
C        0.50000000       0.50000000      10.00000000        0
C        2.95951215       0.50000000      10.00000000        1
C        5.41902429       0.50000000      10.00000000        2
C        7.87853644       0.50000000      10.00000000        3
C       10.33804859       0.50000000      10.00000000        4
C       12.79756073       0.50000000      10.00000000        5
C       15.25707288       0.50000000      10.00000000        6
C       17.71658503       0.50000000      10.00000000        7
C       20.17609718       0.50000000      10.00000000        8
C       22.63560932       0.50000000      10.00000000        9
C       25.70817721       0.86708177      10.00000000       10
C        0.50000000       1.92000000      10.00000000       11
C        2.95951215       1.92000000      10.00000000       12
C        5.41902429       1.92000000      10.00000000       13
C        7.87853644       1.92000000      10.00000000       14
C       10.33804859       1.92000000      10.00000000       15
C       12.79756073       1.92000000      10.00000000       16
C       15.25707288       1.92000000      10.00000000       17
C       17.71658503       1.92000000      10.00000000       18
C       20.17609718       1.92000000      10.00000000       19
C       22.63560932       1.92000000      10.00000000       20
C       25.23350943       2.24859644      10.00000000       21
C        1.72975607       2.63000000      10.00000000       22
C        4.18926822       2.63000000      10.00000000       23
C        6.64878037       2.63000000      10.00000000       24
C        9.10829251       2.63000000      10.00000000       25
C       11.56780466       2.63000000      10.00000000       26
C       14.02731681       2.63000000      10.00000000       27
C       16.48682896       2.63000000      10.00000000       28
C       18.94634110       2.63000000      10.00000000       29
C       21.40585325       2.63000000      10.00000000       30
C       23.87539009       2.67621703      10.00000000       31
C        1.72975607       4.05000000      10.00000000       32
C        4.18926822       4.05000000      10.00000000       33
C        6.64878037       4.05000000      10.00000000       34
C        9.10829251       4.05000000      10.00000000       35
C       11.56780466       4.05000000      10.00000000       36
C       14.02731681       4.05000000      10.00000000       37
C       16.48682896       4.05000000      10.00000000       38
C       18.94634110       4.05000000      10.00000000       39
C       21.40585325       4.05000000      10.00000000       40
C       23.85213583       4.05424805      10.00000000       41
C        0.50000000       4.76000000      10.00000000       42
C        2.95951215       4.76000000      10.00000000       43
C        5.41902429       4.76000000      10.00000000       44
C        7.87853644       4.76000000      10.00000000       45
C       10.33804859       4.76000000      10.00000000       46
C       12.79756073       4.76000000      10.00000000       47
C       15.25707288       4.76000000      10.00000000       48
C       17.71658503       4.76000000      10.00000000       49
C       20.17609718       4.76000000      10.00000000       50
C       22.63566223       4.76118646      10.00000000       51
C       25.12871310       4.70068404      10.00000000       52
C        0.50000000       6.18000000      10.00000000       53
C        2.95951215       6.18000000      10.00000000       54
C        5.41902429       6.18000000      10.00000000       55
C        7.87853644       6.18000000      10.00000000       56
C       10.33804859       6.18000000      10.00000000       57
C       12.79756073       6.18000000      10.00000000       58
C       15.25707288       6.18000000      10.00000000       59
C       17.71658503       6.18000000      10.00000000       60
C       20.17609718       6.18000000      10.00000000       61
C       22.63950543       6.18410545      10.00000000       62
C       25.09622396       6.18177669      10.00000000       63
C        1.72975607       6.89000000      10.00000000       64
C        4.18926822       6.89000000      10.00000000       65
C        6.64878037       6.89000000      10.00000000       66
C        9.10829251       6.89000000      10.00000000       67
C       11.56780466       6.89000000      10.00000000       68
C       14.02731681       6.89000000      10.00000000       69
C       16.48682896       6.89000000      10.00000000       70
C       18.94634110       6.89000000      10.00000000       71
C       21.40585325       6.89000000      10.00000000       72
C       23.88233078       6.90190384      10.00000000       73
C        1.72975607       8.31000000      10.00000000       74
C        4.18926822       8.31000000      10.00000000       75
C        6.64878037       8.31000000      10.00000000       76
C        9.10829251       8.31000000      10.00000000       77
C       11.56780466       8.31000000      10.00000000       78
C       14.02731681       8.31000000      10.00000000       79
C       16.48682896       8.31000000      10.00000000       80
C       18.94634110       8.31000000      10.00000000       81
C       21.40585325       8.31000000      10.00000000       82
C       23.90934922       8.36481576      10.00000000       83
C        0.50000000       9.02000000      10.00000000       84
C        2.95951215       9.02000000      10.00000000       85
C        5.41902429       9.02000000      10.00000000       86
C        7.87853644       9.02000000      10.00000000       87
C       10.33804859       9.02000000      10.00000000       88
C       12.79756073       9.02000000      10.00000000       89
C       15.25707288       9.02000000      10.00000000       90
C       17.71658503       9.02000000      10.00000000       91
C       20.17609718       9.02000000      10.00000000       92
C       22.64332851       9.01727836      10.00000000       93
C       25.12166916       9.11353177      10.00000000       94
C        0.50000000      10.44000000      10.00000000       95
C        2.95951215      10.44000000      10.00000000       96
C        5.41902429      10.44000000      10.00000000       97
C        7.87853644      10.44000000      10.00000000       98
C       10.33804859      10.44000000      10.00000000       99
C       12.79756073      10.44000000      10.00000000      100
C       15.25707288      10.44000000      10.00000000      101
C       17.71658503      10.44000000      10.00000000      102
C       20.17609718      10.44000000      10.00000000      103
C       22.64142893      10.44070697      10.00000000      104
C       25.11117043      10.56519135      10.00000000      105
C        1.72975607      11.15000000      10.00000000      106
C        4.18926822      11.15000000      10.00000000      107
C        6.64878037      11.15000000      10.00000000      108
C        9.10829251      11.15000000      10.00000000      109
C       11.56780466      11.15000000      10.00000000      110
C       14.02731681      11.15000000      10.00000000      111
C       16.48682896      11.15000000      10.00000000      112
C       18.94634110      11.15000000      10.00000000      113
C       21.40585325      11.15000000      10.00000000      114
C       23.83544316      11.14622069      10.00000000      115
C        1.72975607      12.57000000      10.00000000      116
C        4.18926822      12.57000000      10.00000000      117
C        6.64878037      12.57000000      10.00000000      118
C        9.10829251      12.57000000      10.00000000      119
C       11.56780466      12.57000000      10.00000000      120
C       14.02731681      12.57000000      10.00000000      121
C       16.48682896      12.57000000      10.00000000      122
C       18.94634110      12.57000000      10.00000000      123
C       21.40585325      12.57000000      10.00000000      124
C       23.88197021      12.54962711      10.00000000      125
C        0.50000000      13.28000000      10.00000000      126
C        2.95951215      13.28000000      10.00000000      127
C        5.41902429      13.28000000      10.00000000      128
C        7.87853644      13.28000000      10.00000000      129
C       10.33804859      13.28000000      10.00000000      130
C       12.79756073      13.28000000      10.00000000      131
C       15.25707288      13.28000000      10.00000000      132
C       17.71658503      13.28000000      10.00000000      133
C       20.17609718      13.28000000      10.00000000      134
C       22.63560932      13.28000000      10.00000000      135
C       25.20178301      13.02463010      10.00000000      136
C        0.50000000      14.70000000      10.00000000      137
C        2.95951215      14.70000000      10.00000000      138
C        5.41902429      14.70000000      10.00000000      139
C        7.87853644      14.70000000      10.00000000      140
C       10.33804859      14.70000000      10.00000000      141
C       12.79756073      14.70000000      10.00000000      142
C       15.25707288      14.70000000      10.00000000      143
C       17.71658503      14.70000000      10.00000000      144
C       20.17609718      14.70000000      10.00000000      145
C       22.63560932      14.70000000      10.00000000      146
C       25.15480771      14.52238316      10.00000000      147
C        1.72975607      15.41000000      10.00000000      148
C        4.18926822      15.41000000      10.00000000      149
C        6.64878037      15.41000000      10.00000000      150
C        9.10829251      15.41000000      10.00000000      151
C       11.56780466      15.41000000      10.00000000      152
C       14.02731681      15.41000000      10.00000000      153
C       16.48682896      15.41000000      10.00000000      154
C       18.94634110      15.41000000      10.00000000      155
C       21.40585325      15.41000000      10.00000000      156
C       23.87715291      15.38713392      10.00000000      157
C        1.72975607      16.83000000      10.00000000      158
C        4.18926822      16.83000000      10.00000000      159
C        6.64878037      16.83000000      10.00000000      160
C        9.10829251      16.83000000      10.00000000      161
C       11.56780466      16.83000000      10.00000000      162
C       14.02731681      16.83000000      10.00000000      163
C       16.48682896      16.83000000      10.00000000      164
C       18.94634110      16.83000000      10.00000000      165
C       21.40585325      16.83000000      10.00000000      166
C       23.91321701      16.79809502      10.00000000      167
C        0.50000000      17.54000000      10.00000000      168
C        2.95951215      17.54000000      10.00000000      169
C        5.41902429      17.54000000      10.00000000      170
C        7.87853644      17.54000000      10.00000000      171
C       10.33804859      17.54000000      10.00000000      172
C       12.79756073      17.54000000      10.00000000      173
C       15.25707288      17.54000000      10.00000000      174
C       17.71658503      17.54000000      10.00000000      175
C       20.17609718      17.54000000      10.00000000      176
C       22.63560932      17.54000000      10.00000000      177
C       25.15686321      17.40834799      10.00000000      178
C        0.50000000      18.96000000      10.00000000      179
C        2.95951215      18.96000000      10.00000000      180
C        5.41902429      18.96000000      10.00000000      181
C        7.87853644      18.96000000      10.00000000      182
C       10.33804859      18.96000000      10.00000000      183
C       12.79756073      18.96000000      10.00000000      184
C       15.25707288      18.96000000      10.00000000      185
C       17.71658503      18.96000000      10.00000000      186
C       20.17609718      18.96000000      10.00000000      187
C       22.63622512      18.95243049      10.00000000      188
C       25.15397383      18.79798390      10.00000000      189
C        1.72975607      19.67000000      10.00000000      190
C        4.18926822      19.67000000      10.00000000      191
C        6.64878037      19.67000000      10.00000000      192
C        9.10829251      19.67000000      10.00000000      193
C       11.56780466      19.67000000      10.00000000      194
C       14.02731681      19.67000000      10.00000000      195
C       16.48682896      19.67000000      10.00000000      196
C       18.94634110      19.67000000      10.00000000      197
C       21.40585325      19.67000000      10.00000000      198
C       23.92323437      19.56992393      10.00000000      199
C        1.72975607      21.09000000      10.00000000      200
C        4.18926822      21.09000000      10.00000000      201
C        6.64878037      21.09000000      10.00000000      202
C        9.10829251      21.09000000      10.00000000      203
C       11.56780466      21.09000000      10.00000000      204
C       14.02731681      21.09000000      10.00000000      205
C       16.48682896      21.09000000      10.00000000      206
C       18.94634110      21.09000000      10.00000000      207
C       21.40585325      21.09000000      10.00000000      208
C       23.96627823      20.94285744      10.00000000      209
C        0.50000000      21.80000000      10.00000000      210
C        2.95951215      21.80000000      10.00000000      211
C        5.41902429      21.80000000      10.00000000      212
C        7.87853644      21.80000000      10.00000000      213
C       10.33804859      21.80000000      10.00000000      214
C       12.79756073      21.80000000      10.00000000      215
C       15.25707288      21.80000000      10.00000000      216
C       17.71658503      21.80000000      10.00000000      217
C       20.17609718      21.80000000      10.00000000      218
C       22.68866217      21.59591036      10.00000000      219
C       25.15803675      21.78288561      10.00000000      220
C       26.26030474      15.32891794      10.00000000        0
C       26.33855339       8.43310020      10.00000000        0
C       26.36133176       6.95747162      10.00000000        0
C       26.04468979      11.60853735      10.00000000        0
C       25.99777836       3.51375038      10.00000000        0
C       26.34521774      19.59424556      10.00000000        0
C       26.34535073      20.97254232      10.00000000        0
C       27.55807416      14.78465687      10.00000000        0
C       27.71489792      13.40835785      10.00000000        0
C       27.50850945       6.22802425      10.00000000        0
C       27.47966779       9.23671727      10.00000000        0
C       27.37084349      10.77168626      10.00000000        0
C       27.56449516      21.67101685      10.00000000        0
C       27.59529357      18.91118348      10.00000000        0
C       27.56340353      17.52202282      10.00000000        0
C       28.85281081      12.65551740      10.00000000        0
C       28.86372012      21.18621225      10.00000000        0
C       27.11812819       0.74359616      10.00000000        0
C       27.82825334       1.87616521      10.00000000        0
C       28.86491583      19.68129781      10.00000000        0
C       28.81356278      16.85261122      10.00000000        0
C       28.82845008      15.44173176      10.00000000        0
C       29.04731883       2.33821100      10.00000000        0
C       29.30314070       3.69023803      10.00000000        0
C       28.69364663      11.23711192      10.00000000        0
C       30.08637871       4.75326734      10.00000000        0
C       30.27768059       6.05518853      10.00000000        0
C       29.92592609      10.48463787      10.00000000        0
C       29.91514573       9.04268202      10.00000000        0
C       28.64084707       8.45995094      10.00000000        0
C       30.06931562      14.78582423      10.00000000        0
C       30.10739339      13.35087226      10.00000000        0
C       30.08035339      19.01127060      10.00000000        0
C       30.04564128      17.55844497      10.00000000        0
C       30.06289594      22.08476732      10.00000000        0
C       30.12117919       1.27223791      10.00000000        0
C       31.29456368      21.39034643      10.00000000        0
C       31.26382650      19.86050314      10.00000000        0
C       31.28600804       6.96588419      10.00000000        0
C       31.20405349       8.37893311      10.00000000        0
C       31.19129153      11.16178268      10.00000000        0
C       31.27328110      12.59679014      10.00000000        0
C       31.26797209      15.49175985      10.00000000        0
C       31.24936688       2.06935459      10.00000000        0
C       30.90324235       3.54203279      10.00000000        0
C       32.45746128      14.77317289      10.00000000        0
C       32.49889163      13.30868330      10.00000000        0
C       32.44124964      10.47350727      10.00000000        0
C       32.44612631       9.04941237      10.00000000        0
C       32.51502513      19.16511008      10.00000000        0
C       32.56778601      17.73013881      10.00000000        0
C       32.52104681      22.16239586      10.00000000        0
C       32.56055704       1.42896001      10.00000000        0
C       32.47360109       6.27993740      10.00000000        0
C       33.70453422       6.86300602      10.00000000        0
C       33.69852716       8.32365186      10.00000000        0
C       33.69259786      11.17132110      10.00000000        0
C       33.71510295      12.60830605      10.00000000        0
C       33.68903841      16.93136752      10.00000000        0
C       33.71705666      15.47046576      10.00000000        0
C       33.76328967      21.45224133      10.00000000        0
C       33.75701607      19.93740443      10.00000000        0
C       33.77196904       2.11115251      10.00000000        0
C       33.98824139       3.52510208      10.00000000        0
C       34.93636477      14.76789779      10.00000000        0
C       34.94792788      13.31974105      10.00000000        0
C       34.92708356      10.46093201      10.00000000        0
C       34.91836987       9.02623271      10.00000000        0
C       34.84802375       4.61211433      10.00000000        0
C       34.89255357       6.06460329      10.00000000        0
C       34.98160655      19.21753388      10.00000000        0
C       34.93653343      17.68021496      10.00000000        0
C       34.99973233      22.17325666      10.00000000        0
C       35.01058973       1.33097379      10.00000000        0
C       36.24536869      21.46927956      10.00000000        0
C       36.22706158      19.93539285      10.00000000        0
C       36.13450928       2.13598282      10.00000000        0
C       35.74012532       3.54664889      10.00000000        0
C       36.14541654      16.93565083      10.00000000        0
C       36.16264774      15.48010643      10.00000000        0
C       36.17627712      12.58859037      10.00000000        0
C       36.16000048      11.16199787      10.00000000        0
C       36.13602438       8.27489095      10.00000000        0
C       36.12782396       6.79384762      10.00000000        0
C       37.41929777      14.77048477      10.00000000        0
C       37.42587336      13.29854499      10.00000000        0
C       37.37438315      10.41778551      10.00000000        0
C       37.36648776       8.98681295      10.00000000        0
C       37.39809288      17.68703257      10.00000000        0
C       37.39755386      19.14227578      10.00000000        0
C       37.39026560       6.20778018      10.00000000        0
C       37.44046073      22.23875497      10.00000000        0
C       37.40767814       1.47365358      10.00000000        0
C       38.62773649       6.85714759      10.00000000        0
C       38.61512984       8.30364110      10.00000000        0
C       38.59538281      11.14440442      10.00000000        0
C       38.61748287      12.54720248      10.00000000        0
C       38.57778425      15.59347741      10.00000000        0
C       38.62555998      16.89934083      10.00000000        0
C       38.62629914      19.96732305      10.00000000        0
C       38.63281547      21.47909823      10.00000000        0
C       38.66036571       2.18499177      10.00000000        0
C       38.63815960       3.56726978      10.00000000        0
C       39.66587174       4.52948388      10.00000000        0
C       39.72962233       5.95293819      10.00000000        0
C       39.85834690       8.98575158      10.00000000        0
C       39.83042522      10.40988479      10.00000000        0
C       40.06485276      19.84914896      10.00000000        0
C       39.85457797      22.19272535      10.00000000        0
C       39.89161160       1.34729791      10.00000000        0
C       40.80648458      21.06076766      10.00000000        0
C       41.06731246       2.26406828      10.00000000        0
C       40.98810118       3.75318598      10.00000000        0
C       41.04150842      11.12424254      10.00000000        0
C       40.92535171      12.52207224      10.00000000        0
C       41.08723967       8.31864941      10.00000000        0
C       42.28998925       8.99951800      10.00000000        0
C       42.30392131      10.44136134      10.00000000        0
C       42.09471712      13.28581220      10.00000000        0
C       42.16344685      14.75687149      10.00000000        0
C       41.20829207      15.69661747      10.00000000        0
C       40.80302533      16.92496455      10.00000000        0
C       42.10144070      21.49299721      10.00000000        0
C       42.39681373       1.72157735      10.00000000        0
C       42.65335243       0.34757799      10.00000000        0
C       41.59906464      18.04212940      10.00000000        0
C       42.39801604      19.00102484      10.00000000        0
C       43.53634326      19.81474304      10.00000000        0
C       43.48858653      11.16515373      10.00000000        0
C       43.40657005      12.57615495      10.00000000        0
C       43.57024125       2.33077187      10.00000000        0
C       43.52951541       8.23643068      10.00000000        0
C       43.55900640       6.76855350      10.00000000        0
C       42.51400768       5.84087141      10.00000000        0
C       42.03430592       4.69051109      10.00000000        0
C       43.59450843      15.34588647      10.00000000        0
C       44.18806382      16.59910919      10.00000000        0
C       43.55975391      21.31030848      10.00000000        0
C       44.72974300      17.77370794      10.00000000        0
C       44.77470392      19.16402829      10.00000000        0
C       44.82378053       2.01720590      10.00000000        0
C       44.72489161       8.99636699      10.00000000        0
C       44.73344228      10.43155508      10.00000000        0
C       44.67120151      13.20002491      10.00000000        0
C       44.70175395      14.54779717      10.00000000        0
C       44.81171349      21.94784409      10.00000000        0
C       44.92137527       6.09067768      10.00000000        0
C       45.59895952       4.74111828      10.00000000        0
C       46.06074598      21.34225551      10.00000000        0
C       46.03176255      19.87686734      10.00000000        0
C       45.34424914       3.42376787      10.00000000        0
C       45.97847521      11.11394270      10.00000000        0
C       45.93600860      12.51211794      10.00000000        0
C       45.99470848       8.34119645      10.00000000        0
C       46.04430308       6.94411729      10.00000000        0
C       45.74687701      16.76802608      10.00000000        0
C       47.21879812      19.14093575      10.00000000        0
C       47.07792592      17.61467203      10.00000000        0
C       47.24399824       9.03185401      10.00000000        0
C       47.24353845      10.43394374      10.00000000        0
C       47.32024581       6.26988816      10.00000000        0
C       47.12369633       4.87733339      10.00000000        0
C       47.18882528      13.22865380      10.00000000        0
C       47.34989921      14.59135881      10.00000000        0
C       48.40900464      15.46516361      10.00000000        0
C       48.30596169      16.92408272      10.00000000        0
C       48.46287914      19.93001751      10.00000000        0
C       48.51681851      21.53017230      10.00000000        0
C       48.27932854       3.92413047      10.00000000        0
C       46.18642520       2.27058114      10.00000000        0
C       47.29203132       1.46344605      10.00000000        0
C       47.27921372      -0.06268069      10.00000000        0
C       48.41791434       2.39975083      10.00000000        0
C       48.54246546       6.91109881      10.00000000        0
C       48.50557026       8.33639031      10.00000000        0
C       48.48214915      11.14053442      10.00000000        0
C       48.46005741      12.55507422      10.00000000        0
C       49.73323085      10.43619373      10.00000000        0
C       49.73173700       9.01794889      10.00000000        0
C       49.69996376       6.09012872      10.00000000        0
C       49.55355480       4.63368335      10.00000000        0
C       49.68754501      13.42436550      10.00000000        0
C       49.73310941      14.98408970      10.00000000        0
C       49.63757347       1.66765116      10.00000000        0
C       49.54944723       0.22830621      10.00000000        0
C       49.56336876      17.53384584      10.00000000        0
C       49.64040557      19.11070832      10.00000000        0
C       50.91741893       6.81802774      10.00000000        0
C       50.93617425       8.27418764      10.00000000        0
C       50.94560254      11.18407652      10.00000000        0
C       50.85437592      12.64553418      10.00000000        0
C       50.80249080       3.94323111      10.00000000        0
C       50.83173885       2.53282533      10.00000000        0
C       50.40643399      16.29749599      10.00000000        0
C       50.95516637      19.38819737      10.00000000        0
C       52.17748993      19.12689128      10.00000000        0
C       52.08575398       1.97699702      10.00000000        0
C       51.94402346       0.61439882      10.00000000        0
C       52.07055078       4.67911543      10.00000000        0
C       52.13857134       6.10909661      10.00000000        0
C       52.16639309       9.05424807      10.00000000        0
C       52.15351493      10.47412051      10.00000000        0
C       52.15037522      13.23254859      10.00000000        0
C       52.18447404      14.66463793      10.00000000        0
C       52.40378883      21.79887432      10.00000000        0
C       53.42075248      19.59243740      10.00000000        0
C       53.57869399      21.00145555      10.00000000        0
C       53.40355300      15.35126320      10.00000000        0
C       53.64509403      16.78291063      10.00000000        0
C       53.36854480       6.84302090      10.00000000        0
C       53.34358363       8.25875368      10.00000000        0
C       53.35362548       4.02194497      10.00000000        0
C       53.37257099       2.60691204      10.00000000        0
C       53.31420178      12.42670581      10.00000000        0
C       54.73039606      17.56658457      10.00000000        0
C       54.68107269      18.98727045      10.00000000        0
C       54.54977754      13.13668822      10.00000000        0
C       54.63523633      14.61011451      10.00000000        0
C       54.66717683       1.86110281      10.00000000        0
C       55.28777885       0.45175695      10.00000000        0
C       54.59246844       4.76994502      10.00000000        0
C       54.59409105       6.18119971      10.00000000        0
C       54.43811694       9.05688208      10.00000000        0
C       54.93901519      10.18242407      10.00000000        0
C       54.91415875      21.36140262      10.00000000        0
C       55.94580340      11.08475310      10.00000000        0
C       55.88378061      12.48994285      10.00000000        0
C       55.65170973      20.00872042      10.00000000        0
C       55.91362391      15.37450738      10.00000000        0
C       55.98603265      16.90467090      10.00000000        0
C       55.86545088       6.68620871      10.00000000        0
C       55.79546372       4.10893533      10.00000000        0
C       55.81032634       2.71726353      10.00000000        0
C       57.08665089       6.77990633      10.00000000        0
C       57.18777355      13.03423231      10.00000000        0
C       57.13305122      14.57053208      10.00000000        0
C       57.06470093       2.01886321      10.00000000        0
C       56.76320516       0.61994514      10.00000000        0
C       57.09114656      17.79549181      10.00000000        0
C       57.01369703      19.42776192      10.00000000        0
C       57.20531440      10.59750623      10.00000000        0
C       58.41500038       8.69042618      10.00000000        0
C       57.76448814      21.90987160      10.00000000        0
C       57.93328626      20.49986981      10.00000000        0
C       58.34746558       2.60791802      10.00000000        0
C       58.71255299       3.95413585      10.00000000        0
C       58.39410513       7.24538834      10.00000000        0
C       58.27895062      15.43585958      10.00000000        0
C       58.24095132      16.95762342      10.00000000        0
C       58.09481592      11.67423545      10.00000000        0
C       59.49462917       4.99955089      10.00000000        0
C       59.52581732       6.42849028      10.00000000        0
C       59.47331308      10.95791862      10.00000000        0
C       59.57479163       9.46898767      10.00000000        0
C       59.56591627      14.92470830      10.00000000        0
C       59.73348322      13.57333167      10.00000000        0
C       59.49932868      17.61617076      10.00000000        0
C       60.10252076      18.73155555      10.00000000        0
C       59.45185810       1.74903419      10.00000000        0
C       59.05793528       0.34011644      10.00000000        0
C       61.15229900      19.63271073      10.00000000        0
C       60.03235673      21.70000381      10.00000000        0
C       61.19556361      21.16589371      10.00000000        0
C       60.47128924      12.53350213      10.00000000        0
C       60.72527852       2.39651396      10.00000000        0
C       60.76963117       4.00013283      10.00000000        0
C       60.73532267       7.13497719      10.00000000        0
C       57.17941338       9.21612425      10.00000000        0
C       60.75779811       8.59564627      10.00000000        0
C       60.81460404      11.21590920      10.00000000        0
C       60.52615411      16.01502351      10.00000000        0
C       61.75746771      15.48136413      10.00000000        0
C       62.00333582      10.51296701      10.00000000        0
C       62.06454162       9.12554185      10.00000000        0
C       61.93095630       1.51931538      10.00000000        0
C       62.15655254      -0.00287376      10.00000000        0
C       62.30986287      14.34270345      10.00000000        0
C       61.96885683       6.35820998      10.00000000        0
C       61.81962638       4.86662310      10.00000000        0
C       62.44599637      19.31555527      10.00000000        0
C       63.30528989      12.37329805      10.00000000        0
C       63.29938241      11.00303922      10.00000000        0
C       63.36249407       8.59602641      10.00000000        0
C       63.27594807       7.09927305      10.00000000        0
C       63.51313691      20.18310002      10.00000000        0
C       63.41812103      21.69152688      10.00000000        0
C       63.41677280      15.52615136      10.00000000        0
C       64.07807781      16.79381183      10.00000000        0
C       62.05846741      13.03179109      10.00000000        0
C       64.52460746      18.04022985      10.00000000        0
C       64.68799984      19.45793234      10.00000000        0
C       64.23594409       9.95654157      10.00000000        0
C       64.46443866       6.31522150      10.00000000        0
C       64.64960670       4.91924091      10.00000000        0
C       64.48560650      13.10125698      10.00000000        0
C       64.29772554      14.47785887      10.00000000        0
C       65.63342234       3.86735512      10.00000000        0
C       65.68941546       2.36837510      10.00000000        0
C       64.48595193       1.59727465      10.00000000        0
C       63.16893042       2.12853880      10.00000000        0
C       64.62186277       0.11405151      10.00000000        0
C       65.89180418      20.16358132      10.00000000        0
C       65.84091185      21.64509426      10.00000000        0
C       65.63191189      12.28535024      10.00000000        0
C       65.52234947      10.77656699      10.00000000        0
C       65.58335423      17.07552294      10.00000000        0
C       65.77883098       6.77681413      10.00000000        0
C       66.94684996       6.01136965      10.00000000        0
C       66.81320041       4.59728140      10.00000000        0
C       66.87450147      10.30955825      10.00000000        0
C       67.03274905       8.90541665      10.00000000        0
C       66.90727009       1.64822458      10.00000000        0
C       67.00552201       0.10947209      10.00000000        0
C       67.03013474      19.32304129      10.00000000        0
C       66.86888908      17.78683403      10.00000000        0
C       66.87006711      13.05754032      10.00000000        0
C       66.95495944      14.47573008      10.00000000        0
C       68.19504185       8.18934407      10.00000000        0
C       68.16547416       6.75556974      10.00000000        0
C       67.95784612      15.41888193      10.00000000        0
C       68.03611366      16.95045090      10.00000000        0
C       68.21977195      20.06126071      10.00000000        0
C       68.20837734      21.59733207      10.00000000        0
C       68.29594923       2.20211209      10.00000000        0
C       68.16108317      12.46617097      10.00000000        0
C       68.13396429      11.06701694      10.00000000        0
C       69.53941166       1.49146261      10.00000000        0
C       69.50389785      -0.10438001      10.00000000        0
C       69.43075909       6.02448090      10.00000000        0
C       69.51680831       4.55773705      10.00000000        0
C       69.33560397      13.25620790      10.00000000        0
C       69.32262921      14.70690929      10.00000000        0
C       69.36832658      10.36606338      10.00000000        0
C       69.42430110       8.93786706      10.00000000        0
C       69.18718622      17.76970028      10.00000000        0
C       69.34053703      19.21526984      10.00000000        0
C       70.67292784       3.78785742      10.00000000        0
C       70.59163804      11.11752806      10.00000000        0
C       70.54277581      12.55503933      10.00000000        0
C       70.65351826       8.25909200      10.00000000        0
C       70.64030440       6.82302913      10.00000000        0
C       70.79635346      14.79355741      10.00000000        0
C       70.61724380      19.91298875      10.00000000        0
C       70.69910344      21.44775873      10.00000000        0
C       71.92111315       6.04131980      10.00000000        0
C       71.90518955       4.53067562      10.00000000        0
C       71.87269584       8.98362478      10.00000000        0
C       71.82191179      10.44514599      10.00000000        0
C       71.56745591      13.49969675      10.00000000        0
C       71.90869299      22.23715841      10.00000000        0
C       71.85512515      19.19592296      10.00000000        0
C       72.07430449      17.85295176      10.00000000        0
C       71.90219110       1.47397294      10.00000000        0
C       70.70289976       2.28252626      10.00000000        0
C       72.89302602      12.75065865      10.00000000        0
C       72.96906066      11.27627274      10.00000000        0
C       73.07069622       8.22753359      10.00000000        0
C       73.10812798       6.79938964      10.00000000        0
C       72.67250823      16.73721625      10.00000000        0
C       73.23437641      15.59330796      10.00000000        0
C       73.12551819      21.52890369      10.00000000        0
C       73.08549493      20.01769016      10.00000000        0
C       73.08338599       3.72546268      10.00000000        0
C       73.11472775       2.18124656      10.00000000        0
C       74.32935021      14.76361432      10.00000000        0
C       74.19143814      13.35467389      10.00000000        0
C       74.20689016      10.51107363      10.00000000        0
C       74.23456253       9.06540952      10.00000000        0
C       74.20174524      19.28835076      10.00000000        0
C       74.37940066      22.22210738      10.00000000        0
C       74.35652202       1.41918438      10.00000000        0
C       74.26227113       4.43679915      10.00000000        0
C       75.50277606      19.89018690      10.00000000        0
C       75.59515089      21.44882084      10.00000000        0
C       75.48384497       3.72175136      10.00000000        0
C       75.57834327       2.15448280      10.00000000        0
C       75.44259416      12.62161051      10.00000000        0
C       75.46637984      11.19418140      10.00000000        0
C       75.51013831       8.38662021      10.00000000        0
C       75.47288246       6.94555066      10.00000000        0
C       75.57065070      15.45106962      10.00000000        0
C       76.67499220      17.64606247      10.00000000        0
C       76.58326418       6.08301861      10.00000000        0
C       76.65812690       4.56182001      10.00000000        0
C       76.81770827      22.17665529      10.00000000        0
C       76.71343509      19.13174667      10.00000000        0
C       76.72889952      10.48752344      10.00000000        0
C       76.75270996       9.06546596      10.00000000        0
C       76.71380117      13.31969198      10.00000000        0
C       76.79201224      14.73573402      10.00000000        0
C       78.03064678      21.44290002      10.00000000        0
C       76.80722649       1.44093677      10.00000000        0
C       77.94971648      19.89108629      10.00000000        0
C       77.95788637      12.60391725      10.00000000        0
C       77.96383864      11.16831408      10.00000000        0
C       77.93576735       8.26245283      10.00000000        0
C       77.86605904       6.79805570      10.00000000        0
C       77.90906797       3.83635507      10.00000000        0
C       77.98518604       2.25419852      10.00000000        0
C       77.99372082      15.48274884      10.00000000        0
C       77.94402492      16.94015667      10.00000000        0
C       75.51755828      16.81568679      10.00000000        0
C       79.17473954      17.66560236      10.00000000        0
C       79.16763603      19.14833570      10.00000000        0
C       79.21489068      14.75424701      10.00000000        0
C       79.19145620      13.30478517      10.00000000        0
C       79.18601636      10.41859947      10.00000000        0
C       79.17324760       8.96415142      10.00000000        0
C       79.23902599      22.21900818      10.00000000        0
C       79.11429451       6.05907814      10.00000000        0
C       79.13599338       4.55599298      10.00000000        0
C       79.22349336       1.51775614      10.00000000        0
C       80.43413582       2.24839160      10.00000000        0
C       80.39047879       3.79493114      10.00000000        0
C       80.45736359      21.48065462      10.00000000        0
C       80.41691616      19.90653446      10.00000000        0
C       80.35804963       6.76626472      10.00000000        0
C       80.40169953       8.23396140      10.00000000        0
C       80.40869477      11.12760423      10.00000000        0
C       80.43533237      12.58148281      10.00000000        0
C       80.42764772      15.48245199      10.00000000        0
C       80.39979639      16.94088231      10.00000000        0
C       81.61638004       4.51249702      10.00000000        0
C       81.59702670       6.01236479      10.00000000        0
C       81.63760774       8.95049961      10.00000000        0
C       81.66054774      10.53560455      10.00000000        0
C       81.68155618      13.19844077      10.00000000        0
C       81.66816133      14.70444613      10.00000000        0
C       81.62586986      17.67617882      10.00000000        0
C       81.62492379      19.14479541      10.00000000        0
C       81.70133306      22.20198813      10.00000000        0
C       81.65846116       1.46289238      10.00000000        0
C       82.89294625      21.42149052      10.00000000        0
C       82.84527433      19.96313305      10.00000000        0
C       82.88316994       2.21181242      10.00000000        0
C       82.85393523       3.77505142      10.00000000        0
C       82.87115577      16.90845741      10.00000000        0
C       82.89490522      15.46656838      10.00000000        0
C       82.82609340       6.76240581      10.00000000        0
C       82.84057658       8.23908343      10.00000000        0
C       82.41662847      11.90384239      10.00000000        0
C       83.99668579      19.08450498      10.00000000        0
C       84.01167116      17.78228446      10.00000000        0
C       83.92230035      14.60628308      10.00000000        0
C       84.62008594      13.58403186      10.00000000        0
C       84.13939549      22.22468749      10.00000000        0
C       84.17960469       1.54271876      10.00000000        0
C       84.06584544       4.59860809      10.00000000        0
C       84.07049053       6.04930882      10.00000000        0
C       84.10018996       8.91069779      10.00000000        0
C       85.20251947       8.18824014      10.00000000        0
C       85.24618282       6.87070848      10.00000000        0
C       85.09854550      21.23027754      10.00000000        0
C       85.11888481      12.29922723      10.00000000        0
C       85.39107815      11.03615198      10.00000000        0
C       85.25124845       3.84132190      10.00000000        0
C       85.20738288       2.55480479      10.00000000        0
