90
Lattice="11.547836581764841 0.0 0.0 5.77391829088242 10.00071983855961 0.0 0.0 0.0 24.928884386361588" Properties=species:S:1:pos:R:3:spacegroup_kinds:I:1 spacegroup="P 1" unit_cell=conventional occupancy="_JSON {\"0\": {\"Si\": 1.0}, \"1\": {\"Si\": 1.0}, \"2\": {\"Si\": 1.0}, \"3\": {\"Si\": 1.0}, \"4\": {\"Si\": 1.0}, \"5\": {\"Si\": 1.0}, \"6\": {\"Si\": 1.0}, \"7\": {\"Si\": 1.0}, \"8\": {\"Si\": 1.0}, \"9\": {\"Si\": 1.0}, \"10\": {\"Si\": 1.0}, \"11\": {\"Si\": 1.0}, \"12\": {\"Si\": 1.0}, \"13\": {\"Si\": 1.0}, \"14\": {\"Si\": 1.0}, \"15\": {\"Si\": 1.0}, \"16\": {\"Si\": 1.0}, \"17\": {\"Si\": 1.0}, \"18\": {\"Si\": 1.0}, \"19\": {\"Si\": 1.0}, \"20\": {\"Si\": 1.0}, \"21\": {\"Si\": 1.0}, \"22\": {\"Si\": 1.0}, \"23\": {\"Si\": 1.0}, \"24\": {\"Si\": 1.0}, \"25\": {\"Si\": 1.0}, \"26\": {\"Si\": 1.0}, \"27\": {\"Si\": 1.0}, \"28\": {\"Si\": 1.0}, \"29\": {\"Si\": 1.0}, \"30\": {\"Si\": 1.0}, \"31\": {\"Si\": 1.0}, \"32\": {\"Si\": 1.0}, \"33\": {\"Si\": 1.0}, \"34\": {\"Si\": 1.0}, \"35\": {\"Si\": 1.0}, \"36\": {\"Si\": 1.0}, \"37\": {\"Si\": 1.0}, \"38\": {\"Si\": 1.0}, \"39\": {\"Si\": 1.0}, \"40\": {\"Si\": 1.0}, \"41\": {\"Si\": 1.0}, \"42\": {\"Si\": 1.0}, \"43\": {\"Si\": 1.0}, \"44\": {\"Si\": 1.0}, \"45\": {\"Si\": 1.0}, \"46\": {\"Si\": 1.0}, \"47\": {\"Si\": 1.0}, \"48\": {\"Si\": 1.0}, \"49\": {\"Si\": 1.0}, \"50\": {\"Si\": 1.0}, \"51\": {\"Si\": 1.0}, \"52\": {\"Si\": 1.0}, \"53\": {\"Si\": 1.0}}" pbc="T T F"
Si       0.00000000       0.00000000       0.00000000        0
Si       0.00000000       0.00000000       2.35719227        1
Si       3.84927886       2.22238219       3.14292303        2
Si       3.85348679       2.21812661       5.51066320        3
Si       1.91868150       1.09070795       6.28968100        4
Si       1.91458370       1.07902519       8.63060487        5
Si       1.92463943       3.33357328       0.00000000        6
Si       1.92463943       3.33357328       2.35719227        7
Si       5.77391829       5.55595547       3.14292303        8
Si       5.78296678       5.54760012       5.53366788        9
Si       3.87023583       4.45122365       6.28147843       10
Si       3.87343074       4.47566815       8.63493916       11
Si       3.84927886       6.66714656       0.00000000       12
Si       3.84927886       6.66714656       2.35719227       13
Si       7.69855772       8.88952875       3.14292303       14
Si       7.68978740       8.89502165       5.51525722       15
Si       5.75496730       7.78444609       6.29401469       16
Si       5.72738290       7.78927379       8.65730704       17
Si       3.84927886       0.00000000       0.00000000       18
Si       3.84927886       0.00000000       2.35719227       19
Si       7.69855772       2.22238219       3.14292303       20
Si       7.69359937       2.23452758       5.51583433       21
Si       5.74850658       1.12616445       6.29526409       22
Si       5.75899530       1.10192706       8.66003029       23
Si       5.77391829       3.33357328       0.00000000       24
Si       5.77391829       3.33357328       2.35719227       25
Si       9.62319715       5.55595547       3.14292303       26
Si       9.62816742       5.55691085       5.51961108       27
Si       7.71189417       4.42759824       6.28118457       28
Si       7.68769528       4.44066256       8.60104839       29
Si       7.69855772       6.66714656       0.00000000       30
Si       7.69855772       6.66714656       2.35719227       31
Si      11.54783658       8.88952875       3.14292303       32
Si      11.54704005       8.89220107       5.51804790       33
Si       9.63627291       7.79727371       6.27735952       34
Si       9.61211711       7.78446373       8.61453379       35
Si       7.69855772       0.00000000       0.00000000       36
Si       7.69855772       0.00000000       2.35719227       37
Si      11.54783658       2.22238219       3.14292303       38
Si      11.54062784       2.21406945       5.51211971       39
Si       9.63681708       1.12706088       6.29639809       40
Si       9.62032471       1.10687683       8.66597447       41
Si       9.62319715       3.33357328       0.00000000       42
Si       9.62319715       3.33357328       2.35719227       43
Si      13.47247601       5.55595547       3.14292303       44
Si      13.46889252       5.55862655       5.52784155       45
Si      11.52893475       4.45039310       6.26851144       46
Si      11.54069387       4.45639214       8.62744234       47
Si      11.54783658       6.66714656       0.00000000       48
Si      11.54783658       6.66714656       2.35719227       49
Si      15.39711544       8.88952875       3.14292303       50
Si      15.39629805       8.88511950       5.53225304       51
Si      13.46794354       7.74998551       6.31537852       52
Si      13.44889916       7.76215787       8.67941545       53
Si       7.68009389       6.67017130       9.33974478        0
Si       7.66840045      -0.00712058       9.39627047        0
Si       1.93281198       3.32896360       9.28131156        0
Si       3.84459745       6.68140491       9.46766598        0
Si       3.83371227      -0.01507602       9.43704751        0
Si      11.49751575       6.68883305       9.47277586        0
Si       0.00592843       0.01221481       9.42550539        0
Si       5.77210694       3.33404567       9.45097029        0
Si       9.60290279       3.34366016       9.34667718        0
Si      11.44721923       6.75388194      11.84917360        0
Si       9.66141444       3.30906201      11.87606606        0
Si       5.81222677       3.35323357      11.87849939        0
Si       0.03656156      -0.01401300      11.80079198        0
Si       3.88615916       6.71425921      11.81236049        0
Si       3.84477189       0.00464943      11.74281011        0
Si       7.67014572       6.70907819      11.72517970        0
Si       7.66522238       0.01875320      11.75212709        0
Si      15.36507629       8.96003194      12.61046414        0
Si       7.69052411       2.18951653      12.68187526        0
Si       5.79458923       5.61424650      12.64481531        0
Si      11.51634397       9.00703445      12.66372793        0
Si       7.73828085       8.89529183      12.65440449        0
Si      13.44721966       5.57249130      12.49097779        0
Si       1.90221953       3.32956261      11.62913966        0
Si      11.64546247       2.20779700      12.64866826        0
Si       3.80504381       2.25413512      12.45395062        0
Si       9.54333809       5.56677151      12.70426328        0
Si      12.35577717       1.54672700      14.90690835        0
Si       3.17611474       1.44402704      14.58851831        0
Si      11.08369808       9.74842033      14.95626864        0
Si       7.84252767       9.28519269      14.98396170        0
Si       7.52588735       1.36690585      14.93945672        0
Si      15.40080574       9.33474393      14.90466547        0
Si       6.09748713       5.70646562      15.02521576        0
Si       9.29627355       5.61570997      14.98051610        0
Si      13.48031557       5.53979986      14.68933914        0
