628
Lattice="9.87089712 0.0 0.0 -4.935449690925022 8.548447011122686 0.0 0.0 0.0 262.3247664999994" Properties=species:S:1:pos:R:3:spacegroup_kinds:I:1 spacegroup="P 1" unit_cell=conventional occupancy="_JSON {\"0\": {\"C\": 1.0}, \"1\": {\"C\": 1.0}, \"2\": {\"C\": 1.0}, \"3\": {\"C\": 1.0}, \"4\": {\"C\": 1.0}, \"5\": {\"C\": 1.0}, \"6\": {\"C\": 1.0}, \"7\": {\"C\": 1.0}, \"8\": {\"C\": 1.0}, \"9\": {\"C\": 1.0}, \"10\": {\"C\": 1.0}, \"11\": {\"C\": 1.0}, \"12\": {\"C\": 1.0}, \"13\": {\"C\": 1.0}, \"14\": {\"C\": 1.0}, \"15\": {\"C\": 1.0}, \"16\": {\"C\": 1.0}, \"17\": {\"C\": 1.0}, \"18\": {\"C\": 1.0}, \"19\": {\"C\": 1.0}, \"20\": {\"C\": 1.0}, \"21\": {\"C\": 1.0}, \"22\": {\"C\": 1.0}, \"23\": {\"C\": 1.0}, \"24\": {\"C\": 1.0}, \"25\": {\"C\": 1.0}, \"26\": {\"C\": 1.0}, \"27\": {\"C\": 1.0}, \"28\": {\"C\": 1.0}, \"29\": {\"C\": 1.0}, \"30\": {\"C\": 1.0}, \"31\": {\"C\": 1.0}, \"32\": {\"C\": 1.0}, \"33\": {\"C\": 1.0}, \"34\": {\"C\": 1.0}, \"35\": {\"C\": 1.0}, \"36\": {\"C\": 1.0}, \"37\": {\"C\": 1.0}, \"38\": {\"C\": 1.0}, \"39\": {\"C\": 1.0}, \"40\": {\"C\": 1.0}, \"41\": {\"C\": 1.0}, \"42\": {\"C\": 1.0}, \"43\": {\"C\": 1.0}, \"44\": {\"C\": 1.0}, \"45\": {\"C\": 1.0}, \"46\": {\"C\": 1.0}, \"47\": {\"C\": 1.0}, \"48\": {\"C\": 1.0}, \"49\": {\"C\": 1.0}, \"50\": {\"C\": 1.0}, \"51\": {\"C\": 1.0}, \"52\": {\"C\": 1.0}, \"53\": {\"C\": 1.0}, \"54\": {\"C\": 1.0}, \"55\": {\"C\": 1.0}, \"56\": {\"C\": 1.0}, \"57\": {\"C\": 1.0}, \"58\": {\"C\": 1.0}, \"59\": {\"C\": 1.0}, \"60\": {\"C\": 1.0}, \"61\": {\"C\": 1.0}, \"62\": {\"C\": 1.0}, \"63\": {\"C\": 1.0}, \"64\": {\"C\": 1.0}, \"65\": {\"C\": 1.0}, \"66\": {\"C\": 1.0}, \"67\": {\"C\": 1.0}, \"68\": {\"C\": 1.0}, \"69\": {\"C\": 1.0}, \"70\": {\"C\": 1.0}, \"71\": {\"C\": 1.0}, \"72\": {\"C\": 1.0}, \"73\": {\"C\": 1.0}, \"74\": {\"C\": 1.0}, \"75\": {\"C\": 1.0}, \"76\": {\"C\": 1.0}, \"77\": {\"C\": 1.0}, \"78\": {\"C\": 1.0}, \"79\": {\"C\": 1.0}, \"80\": {\"C\": 1.0}, \"81\": {\"C\": 1.0}, \"82\": {\"C\": 1.0}, \"83\": {\"C\": 1.0}, \"84\": {\"C\": 1.0}, \"85\": {\"C\": 1.0}, \"86\": {\"C\": 1.0}, \"87\": {\"C\": 1.0}, \"88\": {\"C\": 1.0}, \"89\": {\"C\": 1.0}, \"90\": {\"C\": 1.0}, \"91\": {\"C\": 1.0}, \"92\": {\"C\": 1.0}, \"93\": {\"C\": 1.0}, \"94\": {\"C\": 1.0}, \"95\": {\"C\": 1.0}, \"96\": {\"C\": 1.0}, \"97\": {\"C\": 1.0}, \"98\": {\"C\": 1.0}, \"99\": {\"C\": 1.0}, \"100\": {\"C\": 1.0}, \"101\": {\"C\": 1.0}, \"102\": {\"C\": 1.0}, \"103\": {\"C\": 1.0}, \"104\": {\"C\": 1.0}, \"105\": {\"C\": 1.0}, \"106\": {\"C\": 1.0}, \"107\": {\"C\": 1.0}, \"108\": {\"C\": 1.0}, \"109\": {\"C\": 1.0}, \"110\": {\"C\": 1.0}, \"111\": {\"C\": 1.0}, \"112\": {\"C\": 1.0}, \"113\": {\"C\": 1.0}, \"114\": {\"C\": 1.0}, \"115\": {\"C\": 1.0}, \"116\": {\"C\": 1.0}, \"117\": {\"C\": 1.0}, \"118\": {\"C\": 1.0}, \"119\": {\"C\": 1.0}, \"120\": {\"C\": 1.0}, \"121\": {\"C\": 1.0}, \"122\": {\"C\": 1.0}, \"123\": {\"C\": 1.0}, \"124\": {\"C\": 1.0}, \"125\": {\"C\": 1.0}, \"126\": {\"C\": 1.0}, \"127\": {\"C\": 1.0}}" pbc="T T F"
C        0.00000000       0.00000000      31.51377850        0
C        0.00000000       0.00000000      27.17125950        1
C       -0.00000142       1.42474188      31.51377850        2
C        1.23386328       0.71236987      27.17125950        3
C        0.00000000       0.00000000      40.19881650        4
C        0.00000000       0.00000000      35.85629750        5
C       -0.00000142       1.42474188      40.19881650        6
C        1.23386328       0.71236987      35.85629750        7
C       -1.23386242       2.13711175      31.51377850        8
C       -1.23386242       2.13711175      27.17125950        9
C       -1.23386385       3.56185363      31.51377850       10
C        0.00000086       2.84948162      27.17125950       11
C       -1.23386242       2.13711175      40.19881650       12
C       -1.23386242       2.13711175      35.85629750       13
C       -1.23386385       3.56185363      40.19881650       14
C        0.00000086       2.84948162      35.85629750       15
C       -2.46772485       4.27422351      31.51377850       16
C       -2.46772485       4.27422351      27.17125950       17
C       -2.46772627       5.69896539      31.51377850       18
C       -1.23386157       4.98659338      27.17125950       19
C       -2.46772485       4.27422351      40.19881650       20
C       -2.46772485       4.27422351      35.85629750       21
C       -2.46772627       5.69896539      40.19881650       22
C       -1.23386157       4.98659338      35.85629750       23
C       -3.70158727       6.41133526      31.51377850       24
C       -3.70158727       6.41133526      27.17125950       25
C       -3.70158869       7.83607714      31.51377850       26
C       -2.46772399       7.12370513      27.17125950       27
C       -3.70158727       6.41133526      40.19881650       28
C       -3.70158727       6.41133526      35.85629750       29
C       -3.70158869       7.83607714      40.19881650       30
C       -2.46772399       7.12370513      35.85629750       31
C        2.46772428       0.00000000      31.51377850       32
C        2.46772428       0.00000000      27.17125950       33
C        2.46772286       1.42474188      31.51377850       34
C        3.70158756       0.71236987      27.17125950       35
C        2.46772428       0.00000000      40.19881650       36
C        2.46772428       0.00000000      35.85629750       37
C        2.46772286       1.42474188      40.19881650       38
C        3.70158756       0.71236987      35.85629750       39
C        1.23386186       2.13711175      31.51377850       40
C        1.23386186       2.13711175      27.17125950       41
C        1.23386043       3.56185363      31.51377850       42
C        2.46772514       2.84948162      27.17125950       43
C        1.23386186       2.13711175      40.19881650       44
C        1.23386186       2.13711175      35.85629750       45
C        1.23386043       3.56185363      40.19881650       46
C        2.46772514       2.84948162      35.85629750       47
C       -0.00000057       4.27422351      31.51377850       48
C       -0.00000057       4.27422351      27.17125950       49
C       -0.00000199       5.69896539      31.51377850       50
C        1.23386271       4.98659338      27.17125950       51
C       -0.00000057       4.27422351      40.19881650       52
C       -0.00000057       4.27422351      35.85629750       53
C       -0.00000199       5.69896539      40.19881650       54
C        1.23386271       4.98659338      35.85629750       55
C       -1.23386299       6.41133526      31.51377850       56
C       -1.23386299       6.41133526      27.17125950       57
C       -1.23386441       7.83607714      31.51377850       58
C        0.00000029       7.12370513      27.17125950       59
C       -1.23386299       6.41133526      40.19881650       60
C       -1.23386299       6.41133526      35.85629750       61
C       -1.23386441       7.83607714      40.19881650       62
C        0.00000029       7.12370513      35.85629750       63
C        4.93544856       0.00000000      31.51377850       64
C        4.93544856       0.00000000      27.17125950       65
C        4.93544714       1.42474188      31.51377850       66
C        6.16931184       0.71236987      27.17125950       67
C        4.93544856       0.00000000      40.19881650       68
C        4.93544856       0.00000000      35.85629750       69
C        4.93544714       1.42474188      40.19881650       70
C        6.16931184       0.71236987      35.85629750       71
C        3.70158614       2.13711175      31.51377850       72
C        3.70158614       2.13711175      27.17125950       73
C        3.70158471       3.56185363      31.51377850       74
C        4.93544942       2.84948162      27.17125950       75
C        3.70158614       2.13711175      40.19881650       76
C        3.70158614       2.13711175      35.85629750       77
C        3.70158471       3.56185363      40.19881650       78
C        4.93544942       2.84948162      35.85629750       79
C        2.46772371       4.27422351      31.51377850       80
C        2.46772371       4.27422351      27.17125950       81
C        2.46772229       5.69896539      31.51377850       82
C        3.70158699       4.98659338      27.17125950       83
C        2.46772371       4.27422351      40.19881650       84
C        2.46772371       4.27422351      35.85629750       85
C        2.46772229       5.69896539      40.19881650       86
C        3.70158699       4.98659338      35.85629750       87
C        1.23386129       6.41133526      31.51377850       88
C        1.23386129       6.41133526      27.17125950       89
C        1.23385987       7.83607714      31.51377850       90
C        2.46772457       7.12370513      27.17125950       91
C        1.23386129       6.41133526      40.19881650       92
C        1.23386129       6.41133526      35.85629750       93
C        1.23385987       7.83607714      40.19881650       94
C        2.46772457       7.12370513      35.85629750       95
C        7.40317284       0.00000000      31.51377850       96
C        7.40317284       0.00000000      27.17125950       97
C        7.40317142       1.42474188      31.51377850       98
C        8.63703612       0.71236987      27.17125950       99
C        7.40317284       0.00000000      40.19881650      100
C        7.40317284       0.00000000      35.85629750      101
C        7.40317142       1.42474188      40.19881650      102
C        8.63703612       0.71236987      35.85629750      103
C        6.16931042       2.13711175      31.51377850      104
C        6.16931042       2.13711175      27.17125950      105
C        6.16930899       3.56185363      31.51377850      106
C        7.40317370       2.84948162      27.17125950      107
C        6.16931042       2.13711175      40.19881650      108
C        6.16931042       2.13711175      35.85629750      109
C        6.16930899       3.56185363      40.19881650      110
C        7.40317370       2.84948162      35.85629750      111
C        4.93544799       4.27422351      31.51377850      112
C        4.93544799       4.27422351      27.17125950      113
C        4.93544657       5.69896539      31.51377850      114
C        6.16931127       4.98659338      27.17125950      115
C        4.93544799       4.27422351      40.19881650      116
C        4.93544799       4.27422351      35.85629750      117
C        4.93544657       5.69896539      40.19881650      118
C        6.16931127       4.98659338      35.85629750      119
C        3.70158557       6.41133526      31.51377850      120
C        3.70158557       6.41133526      27.17125950      121
C        3.70158415       7.83607714      31.51377850      122
C        4.93544885       7.12370513      27.17125950      123
C        3.70158557       6.41133526      40.19881650      124
C        3.70158557       6.41133526      35.85629750      125
C        3.70158415       7.83607714      40.19881650      126
C        4.93544885       7.12370513      35.85629750      127
C       -0.02438451       0.01558826      44.54655915        0
C        1.22672216       0.72654949      44.54624204        0
C        2.45528446       0.01786568      44.54400238        0
C        8.61519543       0.71113762      44.54462702        0
C        3.72412579       0.72064153      44.54370950        0
C        4.93030103      -0.02375205      44.53800953        0
C        7.37760245      -0.00874640      44.53904685        0
C        6.15476120       0.70553947      44.53547935        0
C        6.16585565       2.13936881      44.53829367        0
C        4.94633083       2.87012535      44.54221918        0
C        4.93578410       4.30305916      44.54355965        0
C        3.69208257       5.00990615      44.54262422        0
C        3.67172249       6.44762101      44.54129000        0
C        2.43070662       7.12511933      44.53955592        0
C        1.20407485       6.37654564      44.53682030        0
C       -0.02538085       7.09984396      44.53736454        0
C       -1.26499984       6.40347819      44.53756619        0
C       -2.49133881       7.14510036      44.54005103        0
C        1.21793154       4.96470649      44.53952460        0
C        2.47100048       4.27843657      44.54025941        0
C        4.91127445       7.14897039      44.54405724        0
C       -3.72073793       6.43371201      44.54099953        0
C        6.15936650       5.00981150      44.54138716        0
C        3.72814302       2.14956356      44.54354290        0
C        2.48309009       2.84667619      44.54264620        0
C        1.22597554       2.15062271      44.54443491        0
C       -0.01617253       2.84566056      44.54422659        0
C       -0.03044784       4.26735715      44.54053232        0
C       -1.26375919       4.98266153      44.53947462        0
C       -1.25168937       2.13483863      44.54272976        0
C        7.39065171       2.84671952      44.54083794        0
C       -2.48619923       4.27640831      44.54144985        0
C        1.21643999       3.54831544      48.90271640        0
C       -0.02386210       4.25729678      48.90075712        0
C       -0.03040605       5.69273408      48.89229642        0
C       -1.24573565       6.42921806      48.88466301        0
C        1.23175348       2.10955220      48.90034898        0
C       -1.24289050       7.86388979      48.88083541        0
C        2.47376342       1.43518262      48.88561653        0
C        2.46338554       0.02205727      48.87767812        0
C       -3.70386380       7.84099440      48.88290785        0
C       -0.00185536      -0.01382589      48.88699495        0
C        3.68229819       7.82235218      48.88687148        0
C        7.38864757      -0.01584049      48.88448394        0
C        1.18480568       7.83574483      48.88390096        0
C        4.91938739       0.04491974      48.88108004        0
C        4.94017713       1.46479581      48.87781144        0
C        3.70446376       2.17923197      48.88058298        0
C        6.18359280       2.15731062      48.87783565        0
C        7.40461952       1.40795005      48.88133589        0
C        3.69556444       3.58938776      48.88583112        0
C        2.44141892       4.27515362      48.89250237        0
C       -0.00147136       1.40199556      48.89371438        0
C       -1.23682997       2.11929593      48.88867535        0
C       -1.24360606       3.54587657      48.89304753        0
C        1.18943727       6.40749893      48.88832834        0
C        2.43562477       5.70637184      48.88874413        0
C        3.69191017       6.40020651      48.88638158        0
C        4.93622654       5.70546297      48.88616654        0
C        4.94715210       4.28621172      48.88356510        0
C        6.18365550       3.57773848      48.88143008        0
C       -3.69958901       6.41770297      48.88302288        0
C       -2.46733383       5.71385512      48.88412514        0
C       -2.46247437       4.28213896      48.88473499        0
C        1.26460259       0.69377344      53.25000138        0
C        0.01217128      -0.01494904      53.24573689        0
C        8.65410083       0.69931614      53.23389877        0
C        7.38867129      -0.00502777      53.22581676        0
C        2.49676790       0.00034633      53.24419917        0
C        6.18300356       0.73728666      53.21998988        0
C        3.73680164       0.71941145      53.22886779        0
C        4.95882459       0.00542732      53.22038410        0
C        0.00892286       7.11972963      53.22502497        0
C        1.22797356       6.38862810      53.22779639        0
C        1.23814748       4.95516193      53.22880151        0
C        2.48107001       4.24542002      53.22742630        0
C        2.50547281       2.80751213      53.22783231        0
C        3.74961900       2.13360316      53.22478597        0
C        4.97880363       2.88724968      53.22072172        0
C        6.20314039       2.16221331      53.22148697        0
C        4.95587583       4.29697043      53.22428290        0
C        3.69811739       4.97599743      53.22498005        0
C        7.43946642       2.86147618      53.22325008        0
C       -1.20599632       2.11817527      53.22745528        0
C        1.26383978       2.10830627      53.23734598        0
C        0.02468993       2.82618546      53.22835909        0
C        0.01559687       4.24945009      53.22506002        0
C        2.44562462       7.11054812      53.22883751        0
C        3.68622244       6.41067501      53.22823503        0
C        4.94375680       7.10981360      53.23489641        0
C        6.20328683       4.99668053      53.22545632        0
C       -2.43348013       4.28128519      53.22434785        0
C       -3.68328893       6.41819632      53.23117387        0
C       -2.44534453       7.12614352      53.23245916        0
C       -1.21635388       6.41384500      53.22649517        0
C       -1.21119289       4.98445027      53.22629204        0
C        1.25450969       6.40725144      57.58703166        0
C        0.01334352       5.69843846      57.58211095        0
C        1.26163215       7.84938949      57.58337569        0
C       -0.00263145       4.25904219      57.57645765        0
C        7.41559077       0.02452129      57.57622430        0
C       -1.24654933       3.58208205      57.56655704        0
C        7.41494455       1.45963207      57.56606498        0
C       -1.22684572       2.15721918      57.56282338        0
C        0.01100772       1.43095946      57.56732386        0
C        1.25269370       2.12386719      57.57156271        0
C        2.49623081       1.41210389      57.57150614        0
C        3.73368609       2.13299310      57.57038631        0
C        4.99090806       1.43648799      57.56908816        0
C        6.19713430       2.18919377      57.56611040        0
C        6.16857466       3.60634673      57.56340593        0
C       -2.46612974       4.31224580      57.56540668        0
C        4.92901869       4.29803644      57.56612359        0
C        3.70993088       3.55501055      57.56810998        0
C       -2.45716966       5.73383154      57.56698871        0
C       -1.20489982       6.42570280      57.57263851        0
C        4.97430957       0.01194102      57.57530429        0
C       -1.20338151       7.84663149      57.57069262        0
C        2.49465283      -0.00033807      57.56772948        0
C        1.23669977       3.53903302      57.57478456        0
C        2.46114574       4.26516141      57.57277483        0
C        2.48734290       5.70226962      57.57845134        0
C        3.70950367       6.43109495      57.57365280        0
C        4.94551860       5.72704296      57.56767565        0
C        3.71233008       7.85848296      57.57229591        0
C       -3.69049780       6.43829110      57.56693836        0
C        0.00888100       0.01623747      57.56840921        0
C       -3.68832142       7.85120777      57.56890781        0
C       -1.23665486       2.14442437      61.93697654        0
C        8.57854924       0.70143089      61.92528522        0
C        7.35362313       0.00089621      61.91854872        0
C        2.40794636       7.11149680      61.91104008        0
C        0.02552331       2.81662627      61.92629228        0
C        1.17579886       6.41734515      61.90953629        0
C        1.22828490       4.94812518      61.90654482        0
C       -0.00211032       4.24374920      61.91295345        0
C       -1.22857941       5.01165731      61.91326312        0
C       -2.47371247       4.30913782      61.91740812        0
C        6.12853057       4.99397408      61.91426767        0
C        4.90593183       4.27268650      61.91304135        0
C        3.64557692       4.96993686      61.91075923        0
C        2.45506826       4.20519185      61.90937340        0
C        2.51623440       2.77877746      61.91105812        0
C        1.25928769       2.07522909      61.91776050        0
C        3.74158336       2.06354894      61.91002681        0
C        4.96336565       2.85381420      61.91079593        0
C        1.17451898       0.67584758      61.91496393        0
C       -0.06372229      -0.02061206      61.91682275        0
C        3.65345465       6.39738595      61.91077418        0
C        4.88080001       7.10601901      61.91090708        0
C       -3.74883955       6.40339550      61.91127700        0
C        7.40863372       2.88612566      61.92456124        0
C        6.19671818       2.17242992      61.91748392        0
C        6.15658727       0.75600157      61.91810017        0
C        4.87319829       0.06923782      61.91643714        0
C       -0.02649806       7.18773406      61.91253530        0
C       -1.25785540       6.45070273      61.91139856        0
C       -2.51076317       7.09570577      61.91104484        0
C        2.39615254      -0.04038911      61.91124405        0
C        3.67282423       0.69933872      61.91185533        0
C        3.69747078       6.43328338      66.27395301        0
C        4.94796745       5.72855250      66.27057039        0
C        2.46544486       5.72458726      66.26823938        0
C       -3.68103605       6.41161447      66.26363148        0
C        1.20465000       6.42495801      66.26063346        0
C        0.00061244       5.68111813      66.25146005        0
C       -2.44719284       5.69379666      66.25253575        0
C       -1.22078444       6.40090842      66.24812821        0
C       -1.23981859       7.83363956      66.25241440        0
C        4.91823016       0.01543378      66.25612117        0
C        4.92765637       1.44750865      66.25683831        0
C        6.16235510       2.15517160      66.25418329        0
C        6.18900773       3.60076771      66.25456064        0
C       -2.43815710       4.26784758      66.25142418        0
C       -1.21119330       3.52555574      66.24738158        0
C        0.02808913       4.23810885      66.24978518        0
C       -1.23187912       2.11655277      66.24950875        0
C        7.38254229       1.43134446      66.25081973        0
C        1.25483987       3.53926142      66.25459979        0
C        2.47261418       4.30033749      66.25969398        0
C        1.20308245       7.85532765      66.25922632        0
C        7.37807327       0.01009536      66.25745895        0
C        3.68882623       7.84949315      66.26379959        0
C        4.94987808       4.30779737      66.26257281        0
C        3.71913676       3.59062667      66.25837525        0
C        3.70018762       2.15888608      66.25562237        0
C        1.24220507       2.11831792      66.25389414        0
C        0.00446128       1.40102063      66.25202941        0
C        2.47317382       1.41480276      66.25450984        0
C        2.46957813      -0.00861809      66.25320618        0
C       -0.00364814      -0.01052245      66.25601424        0
C       -3.69644718       7.82956974      66.25556741        0
C        3.71403258       6.39741884      70.61419178        0
C        4.96532977       7.10706429      70.61184421        0
C        2.48679613       7.10792490      70.60844093        0
C        1.21935647       6.40631861      70.60213778        0
C       -3.67405557       6.41092912      70.60486295        0
C        0.01219972       7.14829053      70.59306351        0
C       -2.43477050       7.12893395      70.59438098        0
C       -1.21182239       6.41611825      70.59042928        0
C       -1.22460180       4.98264838      70.59515042        0
C       -0.00495566       4.25242001      70.59911550        0
C        0.00499640       2.81906313      70.59921487        0
C        1.24810545       2.10980516      70.59779992        0
C        1.27155841       0.67023701      70.59655347        0
C        2.51197229      -0.00543162      70.59380455        0
C        3.73643464       0.74653713      70.59076621        0
C        4.96640171       0.02440636      70.59249621        0
C        3.72000590       2.15824524      70.59385026        0
C        2.46637360       2.84390258      70.59519887        0
C        6.20549222       0.72146725      70.59410027        0
C        7.43298542      -0.01969568      70.59962866        0
C        0.03003181      -0.02708409      70.60330296        0
C        8.66201074       0.69055519      70.59820219        0
C       -1.21913315       2.11400632      70.59564852        0
C        1.21232883       4.97491663      70.60158667        0
C        2.45553585       4.27659246      70.60006920        0
C        3.71264483       4.97294120      70.60532323        0
C        4.95457141       4.27797125      70.60119002        0
C        4.96831505       2.85606638      70.59504974        0
C        6.20277343       2.14184544      70.59404232        0
C        6.19110064       4.98793318      70.59983316        0
C       -2.45060209       4.27674582      70.59614450        0
C        7.42494939       2.84744856      70.59652881        0
C        6.19608713       2.13050888      74.95769458        0
C        4.95505545       1.42246293      74.95255476        0
C        6.20424912       3.56629804      74.95392521        0
C        4.93279397      -0.01518712      74.94679802        0
C       -2.44977944       4.29955442      74.94676630        0
C       -1.24010822       7.85428184      74.93645675        0
C       -2.45152488       5.73412020      74.93713054        0
C       -1.22346321       6.44034178      74.93229697        0
C        0.00585671       5.70704477      74.93831399        0
C        1.23750399       6.40038777      74.94160057        0
C        2.49238174       5.69177927      74.94165924        0
C        3.72533488       6.40997064      74.93983538        0
C        4.99087267       5.71070911      74.93878872        0
C       -3.67935893       6.46303604      74.93597137        0
C       -3.70619480       7.88194328      74.93461742        0
C        2.46137459       0.04762769      74.93544400        0
C       -0.01364701       0.02832957      74.93665863        0
C        3.70081233       7.82822728      74.93841863        0
C        2.47465049       1.45811495      74.93936343        0
C        3.73108297       2.14341697      74.94301509        0
C        4.98403026       4.28096165      74.94561908        0
C        3.73901001       3.57703407      74.94131452        0
C        2.48216675       4.27078082      74.93899378        0
C        1.23052439       7.81854801      74.94479131        0
C        7.40191260      -0.01391401      74.94259098        0
C        7.41099461       1.41309113      74.94843169        0
C       -0.01342460       1.44682321      74.93935789        0
C        1.22399807       2.15570515      74.93862281        0
C        1.23684822       3.57498167      74.93919536        0
C        0.00102226       4.28343966      74.93833649        0
C       -1.23190931       3.57967756      74.94112643        0
C       -1.23925260       2.14776592      74.94059206        0
C        3.69720136       0.68884013      79.30043339        0
C        4.93210393      -0.03026629      79.29818350        0
C        6.17905729       0.68091546      79.28961154        0
C        7.42515146      -0.00213519      79.28206500        0
C        2.44492265      -0.01549485      79.29810471        0
C        8.66591946       0.71967979      79.27822687        0
C        1.24101153       0.72871728      79.28312216        0
C        0.02285759       0.01108759      79.27487915        0
C        4.94112867       7.12666154      79.28036386        0
C       -3.71556577       6.40191161      79.28478418        0
C        6.16462595       4.96127534      79.28413943        0
C       -2.47161962       4.25274790      79.28206698        0
C        7.42742406       2.80694058      79.28140363        0
C       -1.18805185       2.14708480      79.27855350        0
C        0.02990355       2.87768542      79.27550050        0
C        1.26657706       2.17212348      79.27869981        0
C        0.01095959       4.29885923      79.27627483        0
C       -1.24930087       4.97867931      79.27916961        0
C        2.49388121       2.86196515      79.28403628        0
C        3.71057529       2.10991853      79.28994029        0
C       -2.48902110       7.11016472      79.29151929        0
C       -1.25015783       6.39911845      79.28650801        0
C       -0.01174682       7.10733954      79.29060636        0
C        6.18744050       2.09430051      79.28548888        0
C        4.95661488       2.81939256      79.28548839        0
C        4.93048026       4.25661546      79.28267708        0
C        2.47348368       4.29438547      79.28148996        0
C        1.24029513       5.00965752      79.27950569        0
C        3.70926281       4.99174985      79.28243608        0
C        3.70706579       6.41742714      79.28008485        0
C        2.48046910       7.13163059      79.28162552        0
C        1.23691257       6.42119133      79.28241621        0
C        7.39958173       0.02949549      83.64285284        0
C        3.70833810       7.86298197      83.64012227        0
C        1.22942975       7.85833533      83.63672155        0
C        0.01754291      -0.00094516      83.63263325        0
C        4.91308621       0.01531557      83.62926512        0
C       -3.67625644       7.82802203      83.62320219        0
C       -1.23456171       7.81503773      83.61944036        0
C        2.48555611      -0.01330123      83.61722514        0
C        2.47079127       1.42141084      83.62316198        0
C        3.68700223       2.14726355      83.62565422        0
C        3.69223560       3.58978842      83.62652686        0
C        4.93732500       4.29972039      83.62419457        0
C        4.95989270       5.74155664      83.62464465        0
C       -3.65774875       6.40252963      83.62128706        0
C       -2.44198049       5.67349270      83.61709714        0
C       -1.21130497       6.38871818      83.61774060        0
C       -2.45821575       4.25142625      83.61846056        0
C        6.15520428       3.56942951      83.62126552        0
C        0.02355240       5.69279560      83.62186279        0
C        1.24644684       6.43383242      83.62896987        0
C        4.91410109       1.43622920      83.62862643        0
C        6.15427294       2.14777901      83.62694976        0
C        7.39248952       1.44166726      83.63411719        0
C        3.71962730       6.45053386      83.63202108        0
C        2.49345961       5.71966921      83.62746868        0
C        2.45707967       4.28460849      83.62552369        0
C        1.23418995       2.12765361      83.62444997        0
C        1.23375700       3.55495754      83.62478157        0
C        0.00282436       4.26121725      83.62230198        0
C       -1.22765897       3.54457110      83.62195849        0
C        0.00797477       1.41462102      83.62665142        0
C       -1.23176721       2.12966840      83.62561456        0
C       -2.46420877       7.11643222      87.99598155        0
C        2.52673234       0.01127056      87.98348039        0
C        3.75138227       0.71193657      87.97641833        0
C        3.76132971       2.14977767      87.96768241        0
C       -3.72639850       6.44435101      87.98258350        0
C        4.99337702       2.84411744      87.96508422        0
C        4.94147623       4.31288880      87.96053955        0
C        6.17208059       5.01724658      87.96643925        0
C       -2.47232980       4.24961541      87.96616292        0
C       -1.22706926       4.95221480      87.97130701        0
C        0.04117855       4.26680989      87.96907467        0
C        1.26373016       4.98827393      87.96839174        0
C        2.52396234       4.29101871      87.96584838        0
C        3.71483014       5.05509630      87.96471964        0
C        3.65424174       6.48169676      87.96695251        0
C        4.91090416       7.18554627      87.97362134        0
C        2.42860940       7.19705049      87.96640342        0
C        1.20669459       6.40712989      87.96686946        0
C        0.05967762       0.03657700      87.97014520        0
C        1.29795238       0.73305175      87.97342541        0
C        2.51599265       2.86367657      87.96678900        0
C        1.28867271       2.15481079      87.96672811        0
C        0.04744006       2.85735399      87.96658761        0
C       -1.23829565       6.37519322      87.98067378        0
C       -0.02636944       7.08910520      87.97417129        0
C        4.94870361      -0.04270156      87.97572919        0
C        6.23181228       0.64408839      87.97308159        0
C        6.19606513       2.07421014      87.96825411        0
C        7.42767497       2.81087773      87.96591160        0
C       -1.19068789       2.16508641      87.96600968        0
C        8.70885414       0.75269818      87.96654120        0
C        7.43202088       0.01299538      87.96701192        0
C       -1.22871616       2.10751534      92.32975545        0
C        7.39511762       1.39642352      92.32586891        0
C        6.15965559       2.11503506      92.31696179        0
C        0.01730838       1.42432384      92.32484268        0
C        4.90636415       1.41107344      92.30823362        0
C        3.70229014       2.15476650      92.30156361        0
C        1.25713824       2.14695716      92.31157445        0
C        2.48447974       1.43789896      92.30108439        0
C        2.46954922       0.00486063      92.30521422        0
C       -1.25118617       7.82892336      92.30676783        0
C       -1.24140411       6.38852578      92.30927136        0
C       -0.00669106       5.68077487      92.30827595        0
C        0.01994314       4.23529199      92.31000481        0
C        1.27489984       3.57478317      92.30777869        0
C        2.49367771       4.30418727      92.30312254        0
C        3.72977661       3.59771003      92.30329208        0
C        2.47612214       5.72549992      92.30483609        0
C        1.21601382       6.40606161      92.30617994        0
C        4.95781999       4.28719984      92.30797136        0
C        6.17432899       3.53571221      92.31171395        0
C        4.91058538      -0.01163505      92.30950927        0
C        1.21495063       7.82623022      92.30976349        0
C        7.38877165      -0.01439819      92.31681921        0
C       -1.21966965       3.52095397      92.31964340        0
C       -2.45007096       4.24547630      92.31251977        0
C       -2.47532124       5.68268878      92.30924885        0
C        4.93825105       5.71972537      92.30878114        0
C        3.70559978       6.43575216      92.30740291        0
C       -3.69639501       6.41748368      92.30905357        0
C       -3.69922524       7.84331390      92.30822842        0
C        0.00970074       0.00945129      92.31305587        0
C        3.70225461       7.84711818      92.31083272        0
C       -1.20440379       6.41518249      96.66701711        0
C        0.02628368       7.12242121      96.66669876        0
C        4.97114092       0.01253560      96.66101935        0
C       -1.23608084       4.97129627      96.66481689        0
C        6.19207054       0.72982278      96.65450891        0
C       -2.48295594       4.29741699      96.65153767        0
C        6.17355738       2.16902761      96.64639953        0
C        7.41412973       2.87178429      96.64383609        0
C       -1.22369873       2.12725113      96.64839303        0
C        0.01747366       2.83219511      96.65364429        0
C        1.27067880       2.12462580      96.65448488        0
C        2.49715226       2.84226497      96.65363602        0
C        3.75723185       2.14880717      96.65156486        0
C        4.95745843       2.88917188      96.64920008        0
C        4.92292683       4.32086511      96.64725659        0
C        6.16315954       5.02645596      96.64927431        0
C        3.68656096       5.00598531      96.64903761        0
C        2.46647919       4.26813608      96.65144880        0
C       -3.68197925       6.44084085      96.65037591        0
C       -2.43133011       7.13714491      96.65715801        0
C        3.73491847       0.72040788      96.65584139        0
C        2.50554015       0.01380746      96.65369383        0
C        1.26256156       0.71219695      96.65227929        0
C        0.00601407       4.24845236      96.65889740        0
C        1.22758103       4.97043477      96.65662519        0
C        1.24979455       6.40024259      96.65963683        0
C        2.48059413       7.11715914      96.65550307        0
C        7.41827291      -0.00836553      96.65332229        0
C        8.65153385       0.70656046      96.65045070        0
C        0.01956675       0.00384869      96.65108090        0
C        4.95417887       7.13886418      96.65078932        0
C        3.71088905       6.42170582      96.65170377        0
C        1.21158231       7.82826175     101.01679065        0
C        1.20004093       6.38892363     101.01239824        0
C        7.37879925      -0.01268227     101.01057444        0
C        7.40112371       1.43584980     101.00190660        0
C       -0.01598831       5.66862661     101.00310460        0
C       -0.01323606       4.23455778     100.99120722        0
C       -1.22281280       2.10814323     100.98880269        0
C       -1.24305289       3.53430531     100.98489080        0
C       -2.47713843       4.26582057     100.99014181        0
C        6.15092885       3.57663594     100.99549163        0
C        4.90493425       4.28443040     100.99659905        0
C        3.66903010       3.56206619     100.99546407        0
C        2.41129642       4.25792666     100.99406742        0
C        1.20561478       3.51648596     100.99173658        0
C        1.24289676       2.07533083     100.98892548        0
C        0.00161806       1.37892207     100.98940322        0
C        2.47579067       1.39230243     100.99289240        0
C        3.69280795       2.14287464     100.99343273        0
C       -0.01100478      -0.04095560     100.99243363        0
C        3.66747313       7.81778833     100.99926076        0
C        2.42584065       5.68299623     101.00239215        0
C        3.66646177       6.39843061     100.99723104        0
C        4.90441950       5.69585761     100.99383583        0
C        6.16618204       2.16088036     100.99966399        0
C        4.94065283       1.43629970     100.99857558        0
C        4.91708499      -0.00301905     101.00465228        0
C        2.45746412      -0.03760028     100.99362119        0
C       -3.71504486       7.80016992     100.99263549        0
C       -1.23857241       7.81383473     100.99855650        0
C       -1.24419863       6.38736987     100.99705059        0
C       -2.47544197       5.67993575     100.99315938        0
C       -3.71611654       6.39080194     100.99421875        0
C        1.21167830       4.96460090     105.35864537        0
C        2.45234852       4.25483842     105.35219862        0
C        1.20289587       6.39973266     105.35524301        0
C       -0.01256442       7.13694352     105.34528891        0
C        2.46859069       2.81806237     105.34306136        0
C        3.71375110       2.14638270     105.33118676        0
C        4.92767305       0.02346795     105.33345507        0
C        3.70038147       0.73303984     105.32626276        0
C        2.46716098       0.00388212     105.33208240        0
C        1.23254132       0.69394320     105.33539488        0
C       -0.01965001      -0.01854622     105.33717648        0
C        8.62036751       0.69620755     105.33565189        0
C        7.35432773      -0.00423806     105.33613587        0
C        6.15490750       0.75180022     105.33268730        0
C        6.17921547       2.17272474     105.32963399        0
C        4.95028549       2.89096864     105.33099506        0
C        7.41909137       2.86802190     105.33181964        0
C       -1.23271649       2.11772566     105.33360630        0
C        4.93465734       4.29947444     105.33657649        0
C        3.67597335       4.97761799     105.34281220        0
C        1.23369795       2.10989421     105.34067554        0
C       -0.00180155       2.82728872     105.33968941        0
C       -0.00718711       4.25360841     105.34790121        0
C        2.42241322       7.11437118     105.34591482        0
C        3.66614957       6.41176827     105.34125828        0
C        4.92315116       7.10838519     105.33700137        0
C        6.18469338       4.99868541     105.33603816        0
C       -2.45046324       4.28821354     105.33460740        0
C       -3.70077013       6.41800999     105.33665084        0
C       -2.46538480       7.12902441     105.33471169        0
C       -1.23366530       6.42303690     105.33859796        0
C       -1.22644423       4.99142066     105.33831080        0
C       -2.43540445       6.05055905     109.72644345        0
C       -3.67136894       6.11598464     109.71941496        0
C        4.89576487       5.85902057     109.68342438        0
C        3.62856287       6.29325378     109.68170127        0
C       -1.18344392       6.12293078     109.71837164        0
C        0.07339816       5.66490423     109.68210301        0
C        2.41729348       5.68726521     109.67498330        0
C        1.24816960       6.47078535     109.66058487        0
C        1.07742566       7.80927819     109.68328299        0
C        5.25193305       0.23246363     109.68595060        0
C        4.71759269       1.38709320     109.69174376        0
C        3.64456663       2.18781564     109.68465930        0
C        3.67529557       3.67163319     109.68260399        0
C        2.37351955       4.26055751     109.67650999        0
C        1.18190093       3.48385746     109.67636251        0
C       -0.00822433       4.22181288     109.67590995        0
C        1.28288142       2.10302393     109.68215650        0
C        2.41376077       1.55582529     109.67996162        0
C        4.78820822       4.43409062     109.67842718        0
C       -1.23546744       3.58290084     109.68945761        0
