128
Lattice="9.87089712 0.0 0.0 -4.935449690925022 8.548447011122686 0.0 0.0 0.0 262.3247664999994" Properties=species:S:1:pos:R:3:spacegroup_kinds:I:1 spacegroup="P 1" unit_cell=conventional occupancy="_JSON {\"0\": {\"C\": 1.0}, \"1\": {\"C\": 1.0}, \"2\": {\"C\": 1.0}, \"3\": {\"C\": 1.0}, \"4\": {\"C\": 1.0}, \"5\": {\"C\": 1.0}, \"6\": {\"C\": 1.0}, \"7\": {\"C\": 1.0}, \"8\": {\"C\": 1.0}, \"9\": {\"C\": 1.0}, \"10\": {\"C\": 1.0}, \"11\": {\"C\": 1.0}, \"12\": {\"C\": 1.0}, \"13\": {\"C\": 1.0}, \"14\": {\"C\": 1.0}, \"15\": {\"C\": 1.0}, \"16\": {\"C\": 1.0}, \"17\": {\"C\": 1.0}, \"18\": {\"C\": 1.0}, \"19\": {\"C\": 1.0}, \"20\": {\"C\": 1.0}, \"21\": {\"C\": 1.0}, \"22\": {\"C\": 1.0}, \"23\": {\"C\": 1.0}, \"24\": {\"C\": 1.0}, \"25\": {\"C\": 1.0}, \"26\": {\"C\": 1.0}, \"27\": {\"C\": 1.0}, \"28\": {\"C\": 1.0}, \"29\": {\"C\": 1.0}, \"30\": {\"C\": 1.0}, \"31\": {\"C\": 1.0}, \"32\": {\"C\": 1.0}, \"33\": {\"C\": 1.0}, \"34\": {\"C\": 1.0}, \"35\": {\"C\": 1.0}, \"36\": {\"C\": 1.0}, \"37\": {\"C\": 1.0}, \"38\": {\"C\": 1.0}, \"39\": {\"C\": 1.0}, \"40\": {\"C\": 1.0}, \"41\": {\"C\": 1.0}, \"42\": {\"C\": 1.0}, \"43\": {\"C\": 1.0}, \"44\": {\"C\": 1.0}, \"45\": {\"C\": 1.0}, \"46\": {\"C\": 1.0}, \"47\": {\"C\": 1.0}, \"48\": {\"C\": 1.0}, \"49\": {\"C\": 1.0}, \"50\": {\"C\": 1.0}, \"51\": {\"C\": 1.0}, \"52\": {\"C\": 1.0}, \"53\": {\"C\": 1.0}, \"54\": {\"C\": 1.0}, \"55\": {\"C\": 1.0}, \"56\": {\"C\": 1.0}, \"57\": {\"C\": 1.0}, \"58\": {\"C\": 1.0}, \"59\": {\"C\": 1.0}, \"60\": {\"C\": 1.0}, \"61\": {\"C\": 1.0}, \"62\": {\"C\": 1.0}, \"63\": {\"C\": 1.0}, \"64\": {\"C\": 1.0}, \"65\": {\"C\": 1.0}, \"66\": {\"C\": 1.0}, \"67\": {\"C\": 1.0}, \"68\": {\"C\": 1.0}, \"69\": {\"C\": 1.0}, \"70\": {\"C\": 1.0}, \"71\": {\"C\": 1.0}, \"72\": {\"C\": 1.0}, \"73\": {\"C\": 1.0}, \"74\": {\"C\": 1.0}, \"75\": {\"C\": 1.0}, \"76\": {\"C\": 1.0}, \"77\": {\"C\": 1.0}, \"78\": {\"C\": 1.0}, \"79\": {\"C\": 1.0}, \"80\": {\"C\": 1.0}, \"81\": {\"C\": 1.0}, \"82\": {\"C\": 1.0}, \"83\": {\"C\": 1.0}, \"84\": {\"C\": 1.0}, \"85\": {\"C\": 1.0}, \"86\": {\"C\": 1.0}, \"87\": {\"C\": 1.0}, \"88\": {\"C\": 1.0}, \"89\": {\"C\": 1.0}, \"90\": {\"C\": 1.0}, \"91\": {\"C\": 1.0}, \"92\": {\"C\": 1.0}, \"93\": {\"C\": 1.0}, \"94\": {\"C\": 1.0}, \"95\": {\"C\": 1.0}, \"96\": {\"C\": 1.0}, \"97\": {\"C\": 1.0}, \"98\": {\"C\": 1.0}, \"99\": {\"C\": 1.0}, \"100\": {\"C\": 1.0}, \"101\": {\"C\": 1.0}, \"102\": {\"C\": 1.0}, \"103\": {\"C\": 1.0}, \"104\": {\"C\": 1.0}, \"105\": {\"C\": 1.0}, \"106\": {\"C\": 1.0}, \"107\": {\"C\": 1.0}, \"108\": {\"C\": 1.0}, \"109\": {\"C\": 1.0}, \"110\": {\"C\": 1.0}, \"111\": {\"C\": 1.0}, \"112\": {\"C\": 1.0}, \"113\": {\"C\": 1.0}, \"114\": {\"C\": 1.0}, \"115\": {\"C\": 1.0}, \"116\": {\"C\": 1.0}, \"117\": {\"C\": 1.0}, \"118\": {\"C\": 1.0}, \"119\": {\"C\": 1.0}, \"120\": {\"C\": 1.0}, \"121\": {\"C\": 1.0}, \"122\": {\"C\": 1.0}, \"123\": {\"C\": 1.0}, \"124\": {\"C\": 1.0}, \"125\": {\"C\": 1.0}, \"126\": {\"C\": 1.0}, \"127\": {\"C\": 1.0}}" pbc="T T F"
C        0.00000000       0.00000000      31.51377850        0
C        0.00000000       0.00000000      27.17125950        1
C       -0.00000142       1.42474188      31.51377850        2
C        1.23386328       0.71236987      27.17125950        3
C        0.00000000       0.00000000      40.19881650        4
C        0.00000000       0.00000000      35.85629750        5
C       -0.00000142       1.42474188      40.19881650        6
C        1.23386328       0.71236987      35.85629750        7
C       -1.23386242       2.13711175      31.51377850        8
C       -1.23386242       2.13711175      27.17125950        9
C       -1.23386385       3.56185363      31.51377850       10
C        0.00000086       2.84948162      27.17125950       11
C       -1.23386242       2.13711175      40.19881650       12
C       -1.23386242       2.13711175      35.85629750       13
C       -1.23386385       3.56185363      40.19881650       14
C        0.00000086       2.84948162      35.85629750       15
C       -2.46772485       4.27422351      31.51377850       16
C       -2.46772485       4.27422351      27.17125950       17
C       -2.46772627       5.69896539      31.51377850       18
C       -1.23386157       4.98659338      27.17125950       19
C       -2.46772485       4.27422351      40.19881650       20
C       -2.46772485       4.27422351      35.85629750       21
C       -2.46772627       5.69896539      40.19881650       22
C       -1.23386157       4.98659338      35.85629750       23
C       -3.70158727       6.41133526      31.51377850       24
C       -3.70158727       6.41133526      27.17125950       25
C       -3.70158869       7.83607714      31.51377850       26
C       -2.46772399       7.12370513      27.17125950       27
C       -3.70158727       6.41133526      40.19881650       28
C       -3.70158727       6.41133526      35.85629750       29
C       -3.70158869       7.83607714      40.19881650       30
C       -2.46772399       7.12370513      35.85629750       31
C        2.46772428       0.00000000      31.51377850       32
C        2.46772428       0.00000000      27.17125950       33
C        2.46772286       1.42474188      31.51377850       34
C        3.70158756       0.71236987      27.17125950       35
C        2.46772428       0.00000000      40.19881650       36
C        2.46772428       0.00000000      35.85629750       37
C        2.46772286       1.42474188      40.19881650       38
C        3.70158756       0.71236987      35.85629750       39
C        1.23386186       2.13711175      31.51377850       40
C        1.23386186       2.13711175      27.17125950       41
C        1.23386043       3.56185363      31.51377850       42
C        2.46772514       2.84948162      27.17125950       43
C        1.23386186       2.13711175      40.19881650       44
C        1.23386186       2.13711175      35.85629750       45
C        1.23386043       3.56185363      40.19881650       46
C        2.46772514       2.84948162      35.85629750       47
C       -0.00000057       4.27422351      31.51377850       48
C       -0.00000057       4.27422351      27.17125950       49
C       -0.00000199       5.69896539      31.51377850       50
C        1.23386271       4.98659338      27.17125950       51
C       -0.00000057       4.27422351      40.19881650       52
C       -0.00000057       4.27422351      35.85629750       53
C       -0.00000199       5.69896539      40.19881650       54
C        1.23386271       4.98659338      35.85629750       55
C       -1.23386299       6.41133526      31.51377850       56
C       -1.23386299       6.41133526      27.17125950       57
C       -1.23386441       7.83607714      31.51377850       58
C        0.00000029       7.12370513      27.17125950       59
C       -1.23386299       6.41133526      40.19881650       60
C       -1.23386299       6.41133526      35.85629750       61
C       -1.23386441       7.83607714      40.19881650       62
C        0.00000029       7.12370513      35.85629750       63
C        4.93544856       0.00000000      31.51377850       64
C        4.93544856       0.00000000      27.17125950       65
C        4.93544714       1.42474188      31.51377850       66
C        6.16931184       0.71236987      27.17125950       67
C        4.93544856       0.00000000      40.19881650       68
C        4.93544856       0.00000000      35.85629750       69
C        4.93544714       1.42474188      40.19881650       70
C        6.16931184       0.71236987      35.85629750       71
C        3.70158614       2.13711175      31.51377850       72
C        3.70158614       2.13711175      27.17125950       73
C        3.70158471       3.56185363      31.51377850       74
C        4.93544942       2.84948162      27.17125950       75
C        3.70158614       2.13711175      40.19881650       76
C        3.70158614       2.13711175      35.85629750       77
C        3.70158471       3.56185363      40.19881650       78
C        4.93544942       2.84948162      35.85629750       79
C        2.46772371       4.27422351      31.51377850       80
C        2.46772371       4.27422351      27.17125950       81
C        2.46772229       5.69896539      31.51377850       82
C        3.70158699       4.98659338      27.17125950       83
C        2.46772371       4.27422351      40.19881650       84
C        2.46772371       4.27422351      35.85629750       85
C        2.46772229       5.69896539      40.19881650       86
C        3.70158699       4.98659338      35.85629750       87
C        1.23386129       6.41133526      31.51377850       88
C        1.23386129       6.41133526      27.17125950       89
C        1.23385987       7.83607714      31.51377850       90
C        2.46772457       7.12370513      27.17125950       91
C        1.23386129       6.41133526      40.19881650       92
C        1.23386129       6.41133526      35.85629750       93
C        1.23385987       7.83607714      40.19881650       94
C        2.46772457       7.12370513      35.85629750       95
C        7.40317284       0.00000000      31.51377850       96
C        7.40317284       0.00000000      27.17125950       97
C        7.40317142       1.42474188      31.51377850       98
C        8.63703612       0.71236987      27.17125950       99
C        7.40317284       0.00000000      40.19881650      100
C        7.40317284       0.00000000      35.85629750      101
C        7.40317142       1.42474188      40.19881650      102
C        8.63703612       0.71236987      35.85629750      103
C        6.16931042       2.13711175      31.51377850      104
C        6.16931042       2.13711175      27.17125950      105
C        6.16930899       3.56185363      31.51377850      106
C        7.40317370       2.84948162      27.17125950      107
C        6.16931042       2.13711175      40.19881650      108
C        6.16931042       2.13711175      35.85629750      109
C        6.16930899       3.56185363      40.19881650      110
C        7.40317370       2.84948162      35.85629750      111
C        4.93544799       4.27422351      31.51377850      112
C        4.93544799       4.27422351      27.17125950      113
C        4.93544657       5.69896539      31.51377850      114
C        6.16931127       4.98659338      27.17125950      115
C        4.93544799       4.27422351      40.19881650      116
C        4.93544799       4.27422351      35.85629750      117
C        4.93544657       5.69896539      40.19881650      118
C        6.16931127       4.98659338      35.85629750      119
C        3.70158557       6.41133526      31.51377850      120
C        3.70158557       6.41133526      27.17125950      121
C        3.70158415       7.83607714      31.51377850      122
C        4.93544885       7.12370513      27.17125950      123
C        3.70158557       6.41133526      40.19881650      124
C        3.70158557       6.41133526      35.85629750      125
C        3.70158415       7.83607714      40.19881650      126
C        4.93544885       7.12370513      35.85629750      127
