721
Lattice="25.59512147 0.0 0.0 0.0 84.54999999433011 0.0 0.0 0.0 20.0" Properties=species:S:1:pos:R:3:spacegroup_kinds:I:1 spacegroup="P 1" unit_cell=conventional pbc="F F F"
C        0.50000000       0.50000000      10.00000000        0
C        2.95951215       0.50000000      10.00000000        1
C        5.41902429       0.50000000      10.00000000        2
C        7.87853644       0.50000000      10.00000000        3
C       10.33804859       0.50000000      10.00000000        4
C       12.79756073       0.50000000      10.00000000        5
C       15.25707288       0.50000000      10.00000000        6
C       17.71658503       0.50000000      10.00000000        7
C       20.17609718       0.50000000      10.00000000        8
C       22.63560932       0.50000000      10.00000000        9
C       25.09512147       0.50000000      10.00000000       10
C        0.50000000       1.92000000      10.00000000       11
C        2.95951215       1.92000000      10.00000000       12
C        5.41902429       1.92000000      10.00000000       13
C        7.87853644       1.92000000      10.00000000       14
C       10.33804859       1.92000000      10.00000000       15
C       12.79756073       1.92000000      10.00000000       16
C       15.25707288       1.92000000      10.00000000       17
C       17.71658503       1.92000000      10.00000000       18
C       20.17609718       1.92000000      10.00000000       19
C       22.63560932       1.92000000      10.00000000       20
C       25.09512147       1.92000000      10.00000000       21
C        1.72975607       2.63000000      10.00000000       22
C        4.18926822       2.63000000      10.00000000       23
C        6.64878037       2.63000000      10.00000000       24
C        9.10829251       2.63000000      10.00000000       25
C       11.56780466       2.63000000      10.00000000       26
C       14.02731681       2.63000000      10.00000000       27
C       16.48682896       2.63000000      10.00000000       28
C       18.94634110       2.63000000      10.00000000       29
C       21.40585325       2.63000000      10.00000000       30
C       23.86536540       2.63000000      10.00000000       31
C        1.72975607       4.05000000      10.00000000       32
C        4.18926822       4.05000000      10.00000000       33
C        6.64878037       4.05000000      10.00000000       34
C        9.10829251       4.05000000      10.00000000       35
C       11.56780466       4.05000000      10.00000000       36
C       14.02731681       4.05000000      10.00000000       37
C       16.48682896       4.05000000      10.00000000       38
C       18.94634110       4.05000000      10.00000000       39
C       21.40585325       4.05000000      10.00000000       40
C       23.86536540       4.05000000      10.00000000       41
C        0.50000000       4.76000000      10.00000000       42
C        2.95951215       4.76000000      10.00000000       43
C        5.41902429       4.76000000      10.00000000       44
C        7.87853644       4.76000000      10.00000000       45
C       10.33804859       4.76000000      10.00000000       46
C       12.79756073       4.76000000      10.00000000       47
C       15.25707288       4.76000000      10.00000000       48
C       17.71658503       4.76000000      10.00000000       49
C       20.17609718       4.76000000      10.00000000       50
C       22.63560932       4.76000000      10.00000000       51
C       25.09512147       4.76000000      10.00000000       52
C        0.50000000       6.18000000      10.00000000       53
C        2.95951215       6.18000000      10.00000000       54
C        5.41902429       6.18000000      10.00000000       55
C        7.87853644       6.18000000      10.00000000       56
C       10.33804859       6.18000000      10.00000000       57
C       12.79756073       6.18000000      10.00000000       58
C       15.25707288       6.18000000      10.00000000       59
C       17.71658503       6.18000000      10.00000000       60
C       20.17609718       6.18000000      10.00000000       61
C       22.63560932       6.18000000      10.00000000       62
C       25.09512147       6.18000000      10.00000000       63
C        1.72975607       6.89000000      10.00000000       64
C        4.18926822       6.89000000      10.00000000       65
C        6.64878037       6.89000000      10.00000000       66
C        9.10829251       6.89000000      10.00000000       67
C       11.56780466       6.89000000      10.00000000       68
C       14.02731681       6.89000000      10.00000000       69
C       16.48682896       6.89000000      10.00000000       70
C       18.94634110       6.89000000      10.00000000       71
C       21.40585325       6.89000000      10.00000000       72
C       23.86536540       6.89000000      10.00000000       73
C        1.72975607       8.31000000      10.00000000       74
C        4.18926822       8.31000000      10.00000000       75
C        6.64878037       8.31000000      10.00000000       76
C        9.10829251       8.31000000      10.00000000       77
C       11.56780466       8.31000000      10.00000000       78
C       14.02731681       8.31000000      10.00000000       79
C       16.48682896       8.31000000      10.00000000       80
C       18.94634110       8.31000000      10.00000000       81
C       21.40585325       8.31000000      10.00000000       82
C       23.86536540       8.31000000      10.00000000       83
C        0.50000000       9.02000000      10.00000000       84
C        2.95951215       9.02000000      10.00000000       85
C        5.41902429       9.02000000      10.00000000       86
C        7.87853644       9.02000000      10.00000000       87
C       10.33804859       9.02000000      10.00000000       88
C       12.79756073       9.02000000      10.00000000       89
C       15.25707288       9.02000000      10.00000000       90
C       17.71658503       9.02000000      10.00000000       91
C       20.17609718       9.02000000      10.00000000       92
C       22.63560932       9.02000000      10.00000000       93
C       25.09512147       9.02000000      10.00000000       94
C        0.50000000      10.44000000      10.00000000       95
C        2.95951215      10.44000000      10.00000000       96
C        5.41902429      10.44000000      10.00000000       97
C        7.87853644      10.44000000      10.00000000       98
C       10.33804859      10.44000000      10.00000000       99
C       12.79756073      10.44000000      10.00000000      100
C       15.25707288      10.44000000      10.00000000      101
C       17.71658503      10.44000000      10.00000000      102
C       20.17609718      10.44000000      10.00000000      103
C       22.63560932      10.44000000      10.00000000      104
C       25.09512147      10.44000000      10.00000000      105
C        1.72975607      11.15000000      10.00000000      106
C        4.18926822      11.15000000      10.00000000      107
C        6.64878037      11.15000000      10.00000000      108
C        9.10829251      11.15000000      10.00000000      109
C       11.56780466      11.15000000      10.00000000      110
C       14.02731681      11.15000000      10.00000000      111
C       16.48682896      11.15000000      10.00000000      112
C       18.94634110      11.15000000      10.00000000      113
C       21.40585325      11.15000000      10.00000000      114
C       23.86536540      11.15000000      10.00000000      115
C        1.72975607      12.57000000      10.00000000      116
C        4.18926822      12.57000000      10.00000000      117
C        6.64878037      12.57000000      10.00000000      118
C        9.10829251      12.57000000      10.00000000      119
C       11.56780466      12.57000000      10.00000000      120
C       14.02731681      12.57000000      10.00000000      121
C       16.48682896      12.57000000      10.00000000      122
C       18.94634110      12.57000000      10.00000000      123
C       21.40585325      12.57000000      10.00000000      124
C       23.86536540      12.57000000      10.00000000      125
C        0.50000000      13.28000000      10.00000000      126
C        2.95951215      13.28000000      10.00000000      127
C        5.41902429      13.28000000      10.00000000      128
C        7.87853644      13.28000000      10.00000000      129
C       10.33804859      13.28000000      10.00000000      130
C       12.79756073      13.28000000      10.00000000      131
C       15.25707288      13.28000000      10.00000000      132
C       17.71658503      13.28000000      10.00000000      133
C       20.17609718      13.28000000      10.00000000      134
C       22.63560932      13.28000000      10.00000000      135
C       25.09512147      13.28000000      10.00000000      136
C        0.50000000      14.70000000      10.00000000      137
C        2.95951215      14.70000000      10.00000000      138
C        5.41902429      14.70000000      10.00000000      139
C        7.87853644      14.70000000      10.00000000      140
C       10.33804859      14.70000000      10.00000000      141
C       12.79756073      14.70000000      10.00000000      142
C       15.25707288      14.70000000      10.00000000      143
C       17.71658503      14.70000000      10.00000000      144
C       20.17609718      14.70000000      10.00000000      145
C       22.63560932      14.70000000      10.00000000      146
C       25.09512147      14.70000000      10.00000000      147
C        1.72975607      15.41000000      10.00000000      148
C        4.18926822      15.41000000      10.00000000      149
C        6.64878037      15.41000000      10.00000000      150
C        9.10829251      15.41000000      10.00000000      151
C       11.56780466      15.41000000      10.00000000      152
C       14.02731681      15.41000000      10.00000000      153
C       16.48682896      15.41000000      10.00000000      154
C       18.94634110      15.41000000      10.00000000      155
C       21.40585325      15.41000000      10.00000000      156
C       23.86536540      15.41000000      10.00000000      157
C        1.72975607      16.83000000      10.00000000      158
C        4.18926822      16.83000000      10.00000000      159
C        6.64878037      16.83000000      10.00000000      160
C        9.10829251      16.83000000      10.00000000      161
C       11.56780466      16.83000000      10.00000000      162
C       14.02731681      16.83000000      10.00000000      163
C       16.48682896      16.83000000      10.00000000      164
C       18.94634110      16.83000000      10.00000000      165
C       21.40585325      16.83000000      10.00000000      166
C       23.86536540      16.83000000      10.00000000      167
C        0.50000000      17.54000000      10.00000000      168
C        2.95951215      17.54000000      10.00000000      169
C        5.41902429      17.54000000      10.00000000      170
C        7.87853644      17.54000000      10.00000000      171
C       10.33804859      17.54000000      10.00000000      172
C       12.79756073      17.54000000      10.00000000      173
C       15.25707288      17.54000000      10.00000000      174
C       17.71658503      17.54000000      10.00000000      175
C       20.17609718      17.54000000      10.00000000      176
C       22.63560932      17.54000000      10.00000000      177
C       25.09512147      17.54000000      10.00000000      178
C        0.50000000      18.96000000      10.00000000      179
C        2.95951215      18.96000000      10.00000000      180
C        5.41902429      18.96000000      10.00000000      181
C        7.87853644      18.96000000      10.00000000      182
C       10.33804859      18.96000000      10.00000000      183
C       12.79756073      18.96000000      10.00000000      184
C       15.25707288      18.96000000      10.00000000      185
C       17.71658503      18.96000000      10.00000000      186
C       20.17609718      18.96000000      10.00000000      187
C       22.63560932      18.96000000      10.00000000      188
C       25.09512147      18.96000000      10.00000000      189
C        1.68669832      19.66505960      10.00000000      190
C        4.18565668      19.67180671      10.00000000      191
C        6.65088164      19.67773238      10.00000000      192
C        9.10839348      19.67749893      10.00000000      193
C       11.57035491      19.67656186      10.00000000      194
C       14.02755581      19.67766758      10.00000000      195
C       16.48720607      19.67628507      10.00000000      196
C       18.94384655      19.67589537      10.00000000      197
C       21.40919558      19.67576702      10.00000000      198
C       23.90312073      19.67214619      10.00000000      199
C        1.70406155      21.08601312      10.00000000      200
C        4.17776549      21.09487225      10.00000000      201
C        6.68067211      21.10987397      10.00000000      202
C        9.14630189      21.07185258      10.00000000      203
C       11.58395410      21.10611964      10.00000000      204
C       14.02124884      21.10686861      10.00000000      205
C       16.48245340      21.06822498      10.00000000      206
C       18.93880931      21.10458929      10.00000000      207
C       21.42064049      21.10607407      10.00000000      208
C       23.89373468      21.09416751      10.00000000      209
C        0.58533957      21.90380911      10.00000000      210
C        2.94728536      21.80465141      10.00000000      211
C        5.42809966      21.81717266      10.00000000      212
C        7.90753369      21.81453569      10.00000000      213
C       10.33299445      21.86628835      10.00000000      214
C       12.78802365      21.83482103      10.00000000      215
C       15.25169038      21.82645231      10.00000000      216
C       17.70460539      21.80798071      10.00000000      217
C       20.17602749      21.81754567      10.00000000      218
C       22.65101382      21.81136604      10.00000000      219
C       25.03847642      21.87294038      10.00000000      220
C       25.03719084      23.13978209      10.00000000        0
C        0.51377604      23.16087272      10.00000000        0
C       22.64402795      23.24265900      10.00000000        0
C        7.84541418      23.20865736      10.00000000        0
C       12.79502194      23.25220427      10.00000000        0
C       17.70031583      23.20140986      10.00000000        0
C        2.93156893      23.23485491      10.00000000        0
C       15.25468110      23.24439837      10.00000000        0
C       10.29991681      23.28414426      10.00000000        0
C        5.39465828      23.22741175      10.00000000        0
C       20.16418284      23.23358648      10.00000000        0
C       14.00917135      23.96121943      10.00000000        0
C        4.16705360      23.94239136      10.00000000        0
C       21.39313643      23.96147826      10.00000000        0
C       23.89803356      23.90987476      10.00000000        0
C        1.67297088      23.93399636      10.00000000        0
C       18.91989042      23.93587491      10.00000000        0
C       11.55389408      23.98537070      10.00000000        0
C       16.48423563      23.95939967      10.00000000        0
C        6.62728091      23.93461714      10.00000000        0
C        9.05981701      23.97209066      10.00000000        0
C        9.07984678      25.39576095      10.00000000        0
C       16.47242251      25.40503852      10.00000000        0
C        6.64901275      25.36239949      10.00000000        0
C       18.92924698      25.33285657      10.00000000        0
C       21.38640116      25.37804965      10.00000000        0
C       11.53557511      25.36545745      10.00000000        0
C       14.00080815      25.39656639      10.00000000        0
C        4.18815964      25.37159737      10.00000000        0
C        1.69417243      25.35383196      10.00000000        0
C       23.89147936      25.36901732      10.00000000        0
C       22.63077550      26.06733613      10.00000000        0
C        2.95079731      26.07239183      10.00000000        0
C       12.77571735      26.10938060      10.00000000        0
C        5.42309665      26.08168858      10.00000000        0
C       15.21517151      26.15729329      10.00000000        0
C       20.14676232      26.06922432      10.00000000        0
C       10.32010970      26.08695922      10.00000000        0
C        7.85987061      26.10102980      10.00000000        0
C       17.70679510      26.09316315      10.00000000        0
C       24.98118096      26.20943060      10.00000000        0
C        0.58621302      26.18236717      10.00000000        0
C        0.53852881      27.44266881      10.00000000        0
C       25.00187612      27.49181589      10.00000000        0
C        7.86472293      27.52292555      10.00000000        0
C       12.74527688      27.48513897      10.00000000        0
C       17.69255805      27.51076536      10.00000000        0
C       10.31144351      27.51285310      10.00000000        0
C       20.15549508      27.43997452      10.00000000        0
C        2.95345294      27.50370947      10.00000000        0
C       22.60602293      27.50725868      10.00000000        0
C        5.41118924      27.46551552      10.00000000        0
C       15.21056472      27.56179539      10.00000000        0
C        9.09470055      28.24822153      10.00000000        0
C        4.18054824      28.20213272      10.00000000        0
C        6.62404984      28.20335080      10.00000000        0
C       23.83420716      28.23159215      10.00000000        0
C       13.94092544      28.19539780      10.00000000        0
C        1.70191499      28.20814266      10.00000000        0
C       21.36820471      28.18364921      10.00000000        0
C       16.45435532      28.26580098      10.00000000        0
C       18.93864533      28.18648646      10.00000000        0
C       11.54934221      28.20264120      10.00000000        0
C       18.86557073      29.61686641      10.00000000        0
C        6.68352641      29.62083516      10.00000000        0
C       21.33602326      29.62080240      10.00000000        0
C       11.57383120      29.62986589      10.00000000        0
C       13.90631015      29.62192948      10.00000000        0
C        4.21387023      29.63488858      10.00000000        0
C       16.33962465      29.67625548      10.00000000        0
C        9.14254416      29.65337525      10.00000000        0
C       23.82132371      29.63125197      10.00000000        0
C        1.71700174      29.62313572      10.00000000        0
C        7.90917057      30.36467868      10.00000000        0
C       17.62786784      30.34768410      10.00000000        0
C       22.57059227      30.33664936      10.00000000        0
C       10.35825607      30.35502906      10.00000000        0
C        2.96849233      30.33671108      10.00000000        0
C        5.44499948      30.34870046      10.00000000        0
C       15.12931170      30.35610336      10.00000000        0
C        0.59819286      30.43427915      10.00000000        0
C       24.93545915      30.44620025      10.00000000        0
C       20.10032936      30.33805773      10.00000000        0
C        0.52128718      31.69459290      10.00000000        0
C       25.05494986      31.69458168      10.00000000        0
C       15.20803849      31.77750854      10.00000000        0
C       20.13954322      31.75644594      10.00000000        0
C        2.94838410      31.74513437      10.00000000        0
C        5.42344284      31.77055248      10.00000000        0
C       22.61517714      31.76321536      10.00000000        0
C       17.67293268      31.74652881      10.00000000        0
C        7.88438612      31.78485551      10.00000000        0
C       10.31927323      31.75536263      10.00000000        0
C        4.18417133      32.46617548      10.00000000        0
C        9.09601585      32.48385135      10.00000000        0
C       21.37836626      32.46953650      10.00000000        0
C       16.44652589      32.47506370      10.00000000        0
C       18.90759433      32.47281690      10.00000000        0
C        6.65010122      32.48914039      10.00000000        0
C        1.68779639      32.45372249      10.00000000        0
C       23.88697787      32.45764141      10.00000000        0
C       13.99958651      32.50986324      10.00000000        0
C       12.74906541      31.81013672      10.00000000        0
C       12.74188654      30.37832951      10.00000000        0
C       11.52933712      32.50608090      10.00000000        0
C       11.54475587      33.90648993      10.00000000        0
C        9.10007891      33.92496482      10.00000000        0
C       14.01864299      33.94040262      10.00000000        0
C       18.90460806      33.89415429      10.00000000        0
C        6.64966095      33.89393478      10.00000000        0
C       16.45921538      33.87212040      10.00000000        0
C        4.19646549      33.89803566      10.00000000        0
C       21.38306702      33.89865019      10.00000000        0
C       23.87329747      33.87200576      10.00000000        0
C        1.71196818      33.87091428      10.00000000        0
C       15.24962169      34.63880183      10.00000000        0
C        5.42758070      34.61107223      10.00000000        0
C       22.62307754      34.59339023      10.00000000        0
C       17.68132378      34.59898128      10.00000000        0
C        2.96196662      34.59440823      10.00000000        0
C       20.14506806      34.61204504      10.00000000        0
C        7.87462166      34.62391129      10.00000000        0
C       12.77684034      34.62962183      10.00000000        0
C       10.33287876      34.62867500      10.00000000        0
C       24.99001723      34.69437750      10.00000000        0
C        0.60676349      34.70156862      10.00000000        0
C       25.05853351      35.94909105      10.00000000        0
C        0.52449790      35.95507288      10.00000000        0
C       22.63879187      36.02696476      10.00000000        0
C        2.94208653      36.02493935      10.00000000        0
C       17.70569527      35.99552050      10.00000000        0
C       15.24629020      36.08049504      10.00000000        0
C        7.86659419      36.04943246      10.00000000        0
C        5.41527239      36.03152682      10.00000000        0
C       20.16242737      36.02208573      10.00000000        0
C       10.30998869      36.00915228      10.00000000        0
C       12.76240034      36.06425531      10.00000000        0
C        9.10026687      36.73872731      10.00000000        0
C       21.39383678      36.73387793      10.00000000        0
C        4.18561367      36.73652674      10.00000000        0
C        6.64436291      36.75623921      10.00000000        0
C       23.89753093      36.72657002      10.00000000        0
C        1.68479393      36.72522291      10.00000000        0
C       11.52640490      36.75157857      10.00000000        0
C       18.92509628      36.72045543      10.00000000        0
C       13.99763038      36.77619012      10.00000000        0
C       16.48637353      36.75824278      10.00000000        0
C       11.51001793      38.15105485      10.00000000        0
C       16.48527669      38.17296345      10.00000000        0
C        6.64510854      38.16998831      10.00000000        0
C        9.09067945      38.17436408      10.00000000        0
C       18.92371911      38.15927630      10.00000000        0
C       21.38971221      38.13214971      10.00000000        0
C        4.18041028      38.15566303      10.00000000        0
C       13.98146950      38.20540197      10.00000000        0
C       23.87108422      38.16665473      10.00000000        0
C        1.69995486      38.15118526      10.00000000        0
C        7.85901385      38.89275661      10.00000000        0
C       22.61424114      38.85299817      10.00000000        0
C        2.94749343      38.86135165      10.00000000        0
C        5.40754029      38.87951342      10.00000000        0
C       12.77151856      38.93144337      10.00000000        0
C       20.16566429      38.85556996      10.00000000        0
C       15.24985051      38.88734682      10.00000000        0
C       24.98880581      38.98744822      10.00000000        0
C        0.55131731      38.92108361      10.00000000        0
C       17.70571327      38.89040859      10.00000000        0
C       10.31572146      38.88923336      10.00000000        0
C        0.57421672      40.21148007      10.00000000        0
C       25.02547600      40.25630299      10.00000000        0
C        2.94351605      40.28775077      10.00000000        0
C       17.72392504      40.32324225      10.00000000        0
C       22.63194014      40.27985671      10.00000000        0
C       10.29926521      40.32398742      10.00000000        0
C        5.39388888      40.24163430      10.00000000        0
C       20.20085211      40.21926829      10.00000000        0
C        7.83143083      40.32483166      10.00000000        0
C       12.79402822      40.33422561      10.00000000        0
C       15.26983924      40.27523999      10.00000000        0
C        9.07518699      41.03666226      10.00000000        0
C       19.01363793      40.92711903      10.00000000        0
C       16.48488282      41.01249407      10.00000000        0
C        4.17879604      40.96752083      10.00000000        0
C        1.71826197      41.00676390      10.00000000        0
C       23.85046414      41.02350540      10.00000000        0
C        6.60400211      40.99792227      10.00000000        0
C       21.38262904      40.93870616      10.00000000        0
C       14.03034252      41.03467195      10.00000000        0
C       11.55934077      41.06597318      10.00000000        0
C       16.48028271      42.41169029      10.00000000        0
C       14.03484455      42.45739270      10.00000000        0
C        6.62669666      42.42444419      10.00000000        0
C       21.30889867      42.40037685      10.00000000        0
C        4.20462577      42.40446391      10.00000000        0
C       11.61832823      42.43599188      10.00000000        0
C        9.13846247      42.45851923      10.00000000        0
C       18.94954744      42.38444935      10.00000000        0
C        1.72334032      42.42050137      10.00000000        0
C       23.68958609      42.43127382      10.00000000        0
C       22.49074585      43.14412885      10.00000000        0
C       10.37976679      43.15097366      10.00000000        0
C        2.97982942      43.12097133      10.00000000        0
C        7.88340055      43.14425723      10.00000000        0
C       12.81726117      43.16812802      10.00000000        0
C       24.83037831      43.21518945      10.00000000        0
C        0.65655311      43.31641801      10.00000000        0
C        5.42395457      43.14268007      10.00000000        0
C       25.00545064      44.45842162      10.00000000        0
C       12.79650758      44.59280439      10.00000000        0
C       10.36112366      44.56825442      10.00000000        0
C        0.49926703      44.56681818      10.00000000        0
C        2.94344259      44.54661688      10.00000000        0
C        5.37261995      44.50056370      10.00000000        0
C        7.84653963      44.55996728      10.00000000        0
C       22.54915661      44.58538094      10.00000000        0
C        4.17161305      45.22364803      10.00000000        0
C        6.58318645      45.20658483      10.00000000        0
C       23.83597464      45.24963263      10.00000000        0
C        1.71912341      45.29791398      10.00000000        0
C        9.04069979      45.31650810      10.00000000        0
C       21.32945528      45.30545859      10.00000000        0
C       20.10175278      44.58923262      10.00000000        0
C       18.86934213      45.26896587      10.00000000        0
C       17.67007510      44.50543810      10.00000000        0
C       17.71948915      43.10773118      10.00000000        0
C       15.26409973      43.15293429      10.00000000        0
C       20.11121652      43.16013425      10.00000000        0
C       15.24685422      44.56814483      10.00000000        0
C       16.45657412      45.27661607      10.00000000        0
C       13.99081103      45.32588735      10.00000000        0
C       11.52908776      45.31739384      10.00000000        0
C       18.89057744      46.66038495      10.00000000        0
C        6.56045846      46.59978888      10.00000000        0
C       16.43844801      46.71233168      10.00000000        0
C        4.18963725      46.65878181      10.00000000        0
C       21.35954812      46.72099337      10.00000000        0
C       11.45487534      46.69247410      10.00000000        0
C       13.93322512      46.73581841      10.00000000        0
C        9.01580665      46.71212378      10.00000000        0
C        1.76552598      46.70033975      10.00000000        0
C       23.83773949      46.66477976      10.00000000        0
C       22.59573047      47.40316992      10.00000000        0
C       12.66325747      47.37831168      10.00000000        0
C       10.25727620      47.40593099      10.00000000        0
C        3.01424795      47.41611405      10.00000000        0
C       15.14080165      47.46453725      10.00000000        0
C       20.10535734      47.40177927      10.00000000        0
C        7.77911582      47.39244186      10.00000000        0
C       24.94791015      47.48651915      10.00000000        0
C        0.65049367      47.51720371      10.00000000        0
C       17.65624991      47.41657747      10.00000000        0
C       25.01544115      48.74240754      10.00000000        0
C       10.31521412      48.82268351      10.00000000        0
C        0.61772236      48.77336883      10.00000000        0
C       17.56927160      48.79822180      10.00000000        0
C       22.56368024      48.84649388      10.00000000        0
C       12.66216601      48.81438906      10.00000000        0
C       20.05950362      48.83219301      10.00000000        0
C       15.10479477      48.85953661      10.00000000        0
C        3.02861926      48.82972298      10.00000000        0
C        7.87460683      48.80266391      10.00000000        0
C        5.40014973      47.36233907      10.00000000        0
C        5.48574586      48.79148648      10.00000000        0
C        4.25623540      49.51897003      10.00000000        0
C       21.30682267      49.54211654      10.00000000        0
C       16.36780574      49.53398167      10.00000000        0
C       23.83960180      49.52513001      10.00000000        0
C        1.76951624      49.52991052      10.00000000        0
C       13.88627286      49.55020296      10.00000000        0
C        9.09708779      49.53145789      10.00000000        0
C       18.81545216      49.52979361      10.00000000        0
C       13.93811289      50.96056199      10.00000000        0
C       18.85790107      50.95343092      10.00000000        0
C       16.40308335      50.94028097      10.00000000        0
C        9.04977270      50.92779050      10.00000000        0
C       21.32258533      50.94710459      10.00000000        0
C       23.82528317      50.93912558      10.00000000        0
C        1.74117229      50.94213655      10.00000000        0
C        4.21488309      50.94862871      10.00000000        0
C       22.56965737      51.64879353      10.00000000        0
C        2.97747151      51.65169618      10.00000000        0
C       15.16182969      51.71190045      10.00000000        0
C        7.85064775      51.66031881      10.00000000        0
C        6.67813086      49.53600050      10.00000000        0
C        6.64270513      50.96279127      10.00000000        0
C        5.42311733      51.67529788      10.00000000        0
C       20.10176722      51.66086990      10.00000000        0
C       24.94447190      51.74855049      10.00000000        0
C       12.73061534      51.68647246      10.00000000        0
C       11.47701457      51.01874412      10.00000000        0
C       11.49070934      49.59538206      10.00000000        0
C       10.26387966      51.69746488      10.00000000        0
C        0.59609031      51.72646091      10.00000000        0
C       17.63476711      51.66659693      10.00000000        0
C        0.55034079      52.98913360      10.00000000        0
C       25.03823053      53.00440170      10.00000000        0
C       10.29867987      53.10605998      10.00000000        0
C        2.96388860      53.08411164      10.00000000        0
C        7.89568184      53.06394469      10.00000000        0
C       17.64091182      53.06865414      10.00000000        0
C       22.59450596      53.05837203      10.00000000        0
C       12.71491775      53.06241672      10.00000000        0
C       20.11846862      53.08821331      10.00000000        0
C       15.14740134      53.11025492      10.00000000        0
C        5.44754220      53.10129834      10.00000000        0
C       13.89919086      53.75984812      10.00000000        0
C        4.21446263      53.80060429      10.00000000        0
C       18.84444595      53.80852999      10.00000000        0
C       21.34743479      53.79308210      10.00000000        0
C       16.35948730      53.84000168      10.00000000        0
C        1.70373915      53.77692473      10.00000000        0
C       23.86454487      53.76198423      10.00000000        0
C        6.68289983      53.79837516      10.00000000        0
C       11.53847201      53.78573767      10.00000000        0
C        9.10401881      53.81848284      10.00000000        0
C       13.90758412      55.20457387      10.00000000        0
C       11.57478572      55.21269467      10.00000000        0
C       21.30241654      55.20952277      10.00000000        0
C       16.31313039      55.20444107      10.00000000        0
C       18.79034229      55.22710476      10.00000000        0
C        6.72502740      55.21269877      10.00000000        0
C        9.15916401      55.22751282      10.00000000        0
C        4.23795771      55.22453247      10.00000000        0
C       23.82155994      55.18137319      10.00000000        0
C        1.72566662      55.19352383      10.00000000        0
C        2.98639936      55.91273633      10.00000000        0
C       20.03545232      55.92779672      10.00000000        0
C       22.55767727      55.90207371      10.00000000        0
C       10.36842513      55.94443574      10.00000000        0
C        5.47908667      55.92751255      10.00000000        0
C       17.52581714      55.87761068      10.00000000        0
C        0.61778468      56.01293783      10.00000000        0
C        7.95550026      55.98783514      10.00000000        0
C       15.11611069      55.90694434      10.00000000        0
C       24.94313477      55.98459096      10.00000000        0
C        0.52573828      57.26717264      10.00000000        0
C       25.01816765      57.24123331      10.00000000        0
C       15.22773264      57.35463221      10.00000000        0
C       22.57944774      57.32603813      10.00000000        0
C       17.51556762      57.39984602      10.00000000        0
C        2.96558270      57.32375277      10.00000000        0
C        5.44982434      57.33483972      10.00000000        0
C        7.96075262      57.39952242      10.00000000        0
C       20.02639862      57.34594892      10.00000000        0
C       10.41737161      57.33007548      10.00000000        0
C        9.17435015      58.08383859      10.00000000        0
C        4.22317561      58.04234139      10.00000000        0
C        6.66310612      58.10401930      10.00000000        0
C       21.32072745      58.03156926      10.00000000        0
C       23.85319771      58.01306943      10.00000000        0
C        1.69924377      58.00744234      10.00000000        0
C       14.02590780      58.07656787      10.00000000        0
C       12.83214436      57.38450828      10.00000000        0
C       12.73755745      55.97884572      10.00000000        0
C       11.59916592      58.06916907      10.00000000        0
C       18.80402066      58.04937340      10.00000000        0
C       18.87714417      59.46634067      10.00000000        0
C       11.55863703      59.48854801      10.00000000        0
C        9.13702972      59.46065633      10.00000000        0
C       21.35077766      59.44994244      10.00000000        0
C        6.65567796      59.50973545      10.00000000        0
C        4.19774432      59.42745081      10.00000000        0
C       13.98731490      59.49988949      10.00000000        0
C        1.72006218      59.43765296      10.00000000        0
C       23.86194671      59.42968538      10.00000000        0
C       22.60708316      60.14431382      10.00000000        0
C        5.40686114      60.18131164      10.00000000        0
C        2.97653788      60.12433211      10.00000000        0
C       20.12095323      60.16764134      10.00000000        0
C       12.75392720      60.22379133      10.00000000        0
C        7.91710318      60.17896140      10.00000000        0
C       24.97580440      60.25301548      10.00000000        0
C       15.19328330      60.24755053      10.00000000        0
C       16.42065863      59.55784858      10.00000000        0
C       17.67148002      60.22273065      10.00000000        0
C       16.37250759      58.13133628      10.00000000        0
C        0.67247457      60.33674826      10.00000000        0
C       10.33137707      60.16663575      10.00000000        0
C       25.05843774      61.50648561      10.00000000        0
C        0.64141743      61.57080519      10.00000000        0
C       20.13982325      61.58101795      10.00000000        0
C        5.44842758      61.58835602      10.00000000        0
C       22.62876433      61.57209195      10.00000000        0
C        3.02672890      61.54402018      10.00000000        0
C        7.94936124      61.65955854      10.00000000        0
C       12.69030437      61.64941233      10.00000000        0
C       10.26896133      61.59300415      10.00000000        0
C       15.16575351      61.64391597      10.00000000        0
C       17.67471687      61.64477454      10.00000000        0
C       11.49954417      62.41531484      10.00000000        0
C       21.38708245      62.28324757      10.00000000        0
C       18.92004735      62.32660557      10.00000000        0
C        1.79331579      62.29619283      10.00000000        0
C       23.89370770      62.27278336      10.00000000        0
C       16.42237408      62.34404765      10.00000000        0
C       13.92713862      62.35771920      10.00000000        0
C       18.93694425      63.73320125      10.00000000        0
C       13.98808188      63.72455655      10.00000000        0
C       16.45519048      63.75965070      10.00000000        0
C       21.39138604      63.71306467      10.00000000        0
C       23.88633450      63.68828411      10.00000000        0
C        1.71777823      63.71870500      10.00000000        0
C       11.57467651      63.86308340      10.00000000        0
C       17.69630768      64.46241145      10.00000000        0
C       22.63276959      64.41061136      10.00000000        0
C       12.89496950      64.52254784      10.00000000        0
C       20.16392753      64.44276509      10.00000000        0
C       15.25537687      64.41123247      10.00000000        0
C        0.60344389      64.54086669      10.00000000        0
C       24.99424564      64.51744134      10.00000000        0
C       10.31608696      64.45664632      10.00000000        0
C        9.09502583      63.75000244      10.00000000        0
C        7.86826664      64.39694097      10.00000000        0
C        6.65245883      63.75443400      10.00000000        0
C        6.67033244      62.31007749      10.00000000        0
C        4.21937879      62.29062791      10.00000000        0
C        9.12092045      62.34877932      10.00000000        0
C        4.20258906      63.71017808      10.00000000        0
C        5.43088434      64.44982139      10.00000000        0
C        2.97355100      64.42800859      10.00000000        0
C        0.59168519      65.79848123      10.00000000        0
C       25.01990574      65.78610193      10.00000000        0
C        5.53471066      65.85821801      10.00000000        0
C       22.63186699      65.84306880      10.00000000        0
C       13.61425171      65.75908849      10.00000000        0
C        3.01181672      65.85506925      10.00000000        0
C       15.10886886      65.76082903      10.00000000        0
C       20.14388137      65.81033617      10.00000000        0
C        7.90227337      65.77487739      10.00000000        0
C        9.13820208      66.47846818      10.00000000        0
C       17.63208394      65.88346360      10.00000000        0
C       21.37759327      66.52414436      10.00000000        0
C        6.72169691      66.56488180      10.00000000        0
C       18.91508756      66.55187151      10.00000000        0
C        4.26181683      66.55716951      10.00000000        0
C       23.86646037      66.55350074      10.00000000        0
C        1.75357494      66.55569714      10.00000000        0
C       16.36482344      66.53692611      10.00000000        0
C       18.91708176      67.96084019      10.00000000        0
C        4.20718940      67.97564045      10.00000000        0
C       21.35453886      67.92122656      10.00000000        0
C       23.81608797      67.99327773      10.00000000        0
C       16.42056568      67.92344586      10.00000000        0
C        1.72272190      67.96772906      10.00000000        0
C        6.68754268      68.00189238      10.00000000        0
C       22.56337894      68.66423648      10.00000000        0
C        2.97043249      68.68254679      10.00000000        0
C        5.43929752      68.70409598      10.00000000        0
C       17.66954097      68.65536333      10.00000000        0
C        0.59944759      68.78004343      10.00000000        0
C        7.87742621      68.67854994      10.00000000        0
C        9.05385541      67.91077613      10.00000000        0
C       10.17911843      68.77239230      10.00000000        0
C       11.39374346      68.16248536      10.00000000        0
C       13.01121244      66.92348978      10.00000000        0
C       24.92575747      68.81902057      10.00000000        0
C       15.12650443      68.61849837      10.00000000        0
C       13.92389626      70.93250866      10.00000000        0
C       12.61636822      68.94935992      10.00000000        0
C       11.55783571      66.77201138      10.00000000        0
C       10.40926579      65.81035710      10.00000000        0
C       20.14948144      68.66145551      10.00000000        0
C        0.51625795      70.02661136      10.00000000        0
C       24.95125643      70.05447207      10.00000000        0
C        5.33808223      70.05354275      10.00000000        0
C        2.94438312      70.11151155      10.00000000        0
C       20.14136580      70.07071223      10.00000000        0
C       22.57103320      70.10337113      10.00000000        0
C       17.68068464      70.07622189      10.00000000        0
C        7.76134605      70.19577771      10.00000000        0
C       10.26250908      70.21557584      10.00000000        0
C       15.16267600      70.08719641      10.00000000        0
C       13.73419037      68.13718647      10.00000000        0
C       12.69377317      70.28671705      10.00000000        0
C        4.18577172      70.78299971      10.00000000        0
C       18.92791766      70.77779939      10.00000000        0
C       16.41636073      70.75345132      10.00000000        0
C        1.66047338      70.85033130      10.00000000        0
C       23.82897238      70.86530776      10.00000000        0
C       11.51484268      70.97491251      10.00000000        0
C        6.49439909      70.89759202      10.00000000        0
C       21.35359496      70.81375870      10.00000000        0
C        9.00748677      70.92828799      10.00000000        0
C       16.37491203      72.23249753      10.00000000        0
C        4.47092928      72.19064080      10.00000000        0
C       21.33031265      72.27525123      10.00000000        0
C        6.28591008      72.31062517      10.00000000        0
C       18.96217893      72.22361444      10.00000000        0
C       11.81577561      72.39572971      10.00000000        0
C       13.73655672      72.33752105      10.00000000        0
C        9.05316007      72.42187599      10.00000000        0
C        1.91470708      72.23370950      10.00000000        0
C       23.71115978      72.25251234      10.00000000        0
C       22.60807698      72.83550832      10.00000000        0
C       17.69463441      72.79557227      10.00000000        0
C       10.52073703      72.97690052      10.00000000        0
C        3.05201987      72.81114944      10.00000000        0
C       20.15680701      72.94915120      10.00000000        0
C       15.02541508      72.87664867      10.00000000        0
C        7.59174266      72.93234861      10.00000000        0
