90
Lattice="11.547836581764841 0.0 0.0 5.77391829088242 10.00071983855961 0.0 0.0 0.0 24.928884386361588" Properties=species:S:1:pos:R:3:spacegroup_kinds:I:1 spacegroup="P 1" unit_cell=conventional occupancy="_JSON {\"0\": {\"Si\": 1.0}, \"1\": {\"Si\": 1.0}, \"2\": {\"Si\": 1.0}, \"3\": {\"Si\": 1.0}, \"4\": {\"Si\": 1.0}, \"5\": {\"Si\": 1.0}, \"6\": {\"Si\": 1.0}, \"7\": {\"Si\": 1.0}, \"8\": {\"Si\": 1.0}, \"9\": {\"Si\": 1.0}, \"10\": {\"Si\": 1.0}, \"11\": {\"Si\": 1.0}, \"12\": {\"Si\": 1.0}, \"13\": {\"Si\": 1.0}, \"14\": {\"Si\": 1.0}, \"15\": {\"Si\": 1.0}, \"16\": {\"Si\": 1.0}, \"17\": {\"Si\": 1.0}, \"18\": {\"Si\": 1.0}, \"19\": {\"Si\": 1.0}, \"20\": {\"Si\": 1.0}, \"21\": {\"Si\": 1.0}, \"22\": {\"Si\": 1.0}, \"23\": {\"Si\": 1.0}, \"24\": {\"Si\": 1.0}, \"25\": {\"Si\": 1.0}, \"26\": {\"Si\": 1.0}, \"27\": {\"Si\": 1.0}, \"28\": {\"Si\": 1.0}, \"29\": {\"Si\": 1.0}, \"30\": {\"Si\": 1.0}, \"31\": {\"Si\": 1.0}, \"32\": {\"Si\": 1.0}, \"33\": {\"Si\": 1.0}, \"34\": {\"Si\": 1.0}, \"35\": {\"Si\": 1.0}, \"36\": {\"Si\": 1.0}, \"37\": {\"Si\": 1.0}, \"38\": {\"Si\": 1.0}, \"39\": {\"Si\": 1.0}, \"40\": {\"Si\": 1.0}, \"41\": {\"Si\": 1.0}, \"42\": {\"Si\": 1.0}, \"43\": {\"Si\": 1.0}, \"44\": {\"Si\": 1.0}, \"45\": {\"Si\": 1.0}, \"46\": {\"Si\": 1.0}, \"47\": {\"Si\": 1.0}, \"48\": {\"Si\": 1.0}, \"49\": {\"Si\": 1.0}, \"50\": {\"Si\": 1.0}, \"51\": {\"Si\": 1.0}, \"52\": {\"Si\": 1.0}, \"53\": {\"Si\": 1.0}}" pbc="T T F"
Si       0.00000000       0.00000000       0.00000000        0
Si       0.00000000       0.00000000       2.35719227        1
Si       3.84927886       2.22238219       3.14292303        2
Si       3.84796726       2.22231147       5.49581259        3
Si       1.92436199       1.11161049       6.29670511        4
Si       1.91155470       1.10609962       8.67290969        5
Si       1.92463943       3.33357328       0.00000000        6
Si       1.92463943       3.33357328       2.35719227        7
Si       5.77391829       5.55595547       3.14292303        8
Si       5.77206344       5.55787738       5.49642786        9
Si       3.85011148       4.44440464       6.30539366       10
Si       3.86173647       4.43869391       8.70207414       11
Si       3.84927886       6.66714656       0.00000000       12
Si       3.84927886       6.66714656       2.35719227       13
Si       7.69855772       8.88952875       3.14292303       14
Si       7.69697356       8.88988193       5.50591753       15
Si       5.77298977       7.77979441       6.29544303       16
Si       5.77363722       7.77461316       8.61441272       17
Si       3.84927886       0.00000000       0.00000000       18
Si       3.84927886       0.00000000       2.35719227       19
Si       7.69855772       2.22238219       3.14292303       20
Si       7.69941587       2.22542327       5.49762484       21
Si       5.77469054       1.11463409       6.29074480       22
Si       5.76193462       1.10680073       8.63249492       23
Si       5.77391829       3.33357328       0.00000000       24
Si       5.77391829       3.33357328       2.35719227       25
Si       9.62319715       5.55595547       3.14292303       26
Si       9.62259654       5.55397740       5.50432081       27
Si       7.69536386       4.44685804       6.28994705       28
Si       7.69489793       4.43823202       8.64471334       29
Si       7.69855772       6.66714656       0.00000000       30
Si       7.69855772       6.66714656       2.35719227       31
Si      11.54783658       8.88952875       3.14292303       32
Si      11.54796680       8.88980009       5.50416051       33
Si       9.62214180       7.77757975       6.30163720       34
Si       9.61437199       7.76780763       8.68036364       35
Si       7.69855772       0.00000000       0.00000000       36
Si       7.69855772       0.00000000       2.35719227       37
Si      11.54783658       2.22238219       3.14292303       38
Si      11.54733762       2.22404289       5.49989727       39
Si       9.62620583       1.11399926       6.28092763       40
Si       9.62355147       1.11421423       8.64399942       41
Si       9.62319715       3.33357328       0.00000000       42
Si       9.62319715       3.33357328       2.35719227       43
Si      13.47247601       5.55595547       3.14292303       44
Si      13.47354926       5.55682146       5.49912378       45
Si      11.54424275       4.44271271       6.31169616       46
Si      11.53056839       4.43906157       8.70427919       47
Si      11.54783658       6.66714656       0.00000000       48
Si      11.54783658       6.66714656       2.35719227       49
Si      15.39711544       8.88952875       3.14292303       50
Si      15.39723777       8.89116473       5.50169453       51
Si      13.47326213       7.78121170       6.31037107       52
Si      13.47605403       7.79384481       8.71082089       53
Si       7.68192915       6.65079305       9.44019562        0
Si      11.54131209       6.66475696       9.47488272        0
Si       7.68712668       0.02082716       9.45639828        0
Si      -0.00830607      -0.01114885       9.45407102        0
Si       1.91964607       3.33037145       9.47349227        0
Si       5.77768286       3.32425568       9.48107661        0
Si       3.86170061       6.67408862       9.46408710        0
Si       9.61046954       3.33124638       9.46201310        0
Si       3.83169169      -0.00912567       9.45500406        0
Si       7.65861839       0.01229529      11.84480895        0
Si       9.60186893       3.34225588      11.85197908        0
Si       5.76401642       3.34942184      11.89837709        0
Si       7.67158079       6.64340101      11.75815323        0
Si      -0.02220474      -0.02083248      11.84996461        0
Si       3.86973799       6.67780507      11.83817298        0
Si       3.80273801      -0.02144204      11.83652296        0
Si       1.91020928       3.33601309      11.85492933        0
Si      11.53225410       6.66219572      11.83140043        0
Si       7.67673788       8.85255492      12.59379484        0
Si      13.48047205       5.57856234      12.58970662        0
Si       3.83135019       2.20360674      12.57387058        0
Si      11.50111895       8.88295570      12.58129876        0
Si       9.59391897       5.57783146      12.59901963        0
Si      11.53193298       2.21443098      12.58708594        0
Si      15.34403661       8.88998145      12.58719625        0
Si       5.79518112       5.57201291      12.66776073        0
Si       7.68458043       2.22651484      12.62585358        0
Si       7.84807067       8.13408237      14.84505522        0
Si       9.04170090       6.02406978      14.85619318        0
Si       6.55233254       6.10020018      14.87281228        0
Si      11.48427848       8.42756016      14.90715459        0
Si      14.97581003       8.38408069      14.90502702        0
Si      13.55013639       6.19687046      14.91522330        0
Si       4.00297010       2.20085169      14.90923628        0
Si       7.56797293       2.15759280      14.94990249        0
Si      11.54739963       2.22351736      14.90629152        0
