54
Lattice="11.547836581764841 0.0 0.0 5.77391829088242 10.00071983855961 0.0 0.0 0.0 24.928884386361588" Properties=species:S:1:pos:R:3:spacegroup_kinds:I:1 spacegroup="P 1" unit_cell=conventional occupancy="_JSON {\"0\": {\"Si\": 1.0}, \"1\": {\"Si\": 1.0}, \"2\": {\"Si\": 1.0}, \"3\": {\"Si\": 1.0}, \"4\": {\"Si\": 1.0}, \"5\": {\"Si\": 1.0}, \"6\": {\"Si\": 1.0}, \"7\": {\"Si\": 1.0}, \"8\": {\"Si\": 1.0}, \"9\": {\"Si\": 1.0}, \"10\": {\"Si\": 1.0}, \"11\": {\"Si\": 1.0}, \"12\": {\"Si\": 1.0}, \"13\": {\"Si\": 1.0}, \"14\": {\"Si\": 1.0}, \"15\": {\"Si\": 1.0}, \"16\": {\"Si\": 1.0}, \"17\": {\"Si\": 1.0}, \"18\": {\"Si\": 1.0}, \"19\": {\"Si\": 1.0}, \"20\": {\"Si\": 1.0}, \"21\": {\"Si\": 1.0}, \"22\": {\"Si\": 1.0}, \"23\": {\"Si\": 1.0}, \"24\": {\"Si\": 1.0}, \"25\": {\"Si\": 1.0}, \"26\": {\"Si\": 1.0}, \"27\": {\"Si\": 1.0}, \"28\": {\"Si\": 1.0}, \"29\": {\"Si\": 1.0}, \"30\": {\"Si\": 1.0}, \"31\": {\"Si\": 1.0}, \"32\": {\"Si\": 1.0}, \"33\": {\"Si\": 1.0}, \"34\": {\"Si\": 1.0}, \"35\": {\"Si\": 1.0}, \"36\": {\"Si\": 1.0}, \"37\": {\"Si\": 1.0}, \"38\": {\"Si\": 1.0}, \"39\": {\"Si\": 1.0}, \"40\": {\"Si\": 1.0}, \"41\": {\"Si\": 1.0}, \"42\": {\"Si\": 1.0}, \"43\": {\"Si\": 1.0}, \"44\": {\"Si\": 1.0}, \"45\": {\"Si\": 1.0}, \"46\": {\"Si\": 1.0}, \"47\": {\"Si\": 1.0}, \"48\": {\"Si\": 1.0}, \"49\": {\"Si\": 1.0}, \"50\": {\"Si\": 1.0}, \"51\": {\"Si\": 1.0}, \"52\": {\"Si\": 1.0}, \"53\": {\"Si\": 1.0}}" pbc="T T F"
Si       0.00000000       0.00000000       0.00000000        0
Si       0.00000000       0.00000000       2.35719227        1
Si       3.84927886       2.22238219       3.14292303        2
Si       3.84927886       2.22238219       5.50011530        3
Si       1.92463943       1.11119109       6.28584606        4
Si       1.92463943       1.11119109       8.64303833        5
Si       1.92463943       3.33357328       0.00000000        6
Si       1.92463943       3.33357328       2.35719227        7
Si       5.77391829       5.55595547       3.14292303        8
Si       5.77391829       5.55595547       5.50011530        9
Si       3.84927886       4.44476437       6.28584606       10
Si       3.84927886       4.44476437       8.64303833       11
Si       3.84927886       6.66714656       0.00000000       12
Si       3.84927886       6.66714656       2.35719227       13
Si       7.69855772       8.88952875       3.14292303       14
Si       7.69855772       8.88952875       5.50011530       15
Si       5.77391829       7.77833765       6.28584606       16
Si       5.77391829       7.77833765       8.64303833       17
Si       3.84927886       0.00000000       0.00000000       18
Si       3.84927886       0.00000000       2.35719227       19
Si       7.69855772       2.22238219       3.14292303       20
Si       7.69855772       2.22238219       5.50011530       21
Si       5.77391829       1.11119109       6.28584606       22
Si       5.77391829       1.11119109       8.64303833       23
Si       5.77391829       3.33357328       0.00000000       24
Si       5.77391829       3.33357328       2.35719227       25
Si       9.62319715       5.55595547       3.14292303       26
Si       9.62319715       5.55595547       5.50011530       27
Si       7.69855772       4.44476437       6.28584606       28
Si       7.69855772       4.44476437       8.64303833       29
Si       7.69855772       6.66714656       0.00000000       30
Si       7.69855772       6.66714656       2.35719227       31
Si      11.54783658       8.88952875       3.14292303       32
Si      11.54783658       8.88952875       5.50011530       33
Si       9.62319715       7.77833765       6.28584606       34
Si       9.62319715       7.77833765       8.64303833       35
Si       7.69855772       0.00000000       0.00000000       36
Si       7.69855772       0.00000000       2.35719227       37
Si      11.54783658       2.22238219       3.14292303       38
Si      11.54783658       2.22238219       5.50011530       39
Si       9.62319715       1.11119109       6.28584606       40
Si       9.62319715       1.11119109       8.64303833       41
Si       9.62319715       3.33357328       0.00000000       42
Si       9.62319715       3.33357328       2.35719227       43
Si      13.47247601       5.55595547       3.14292303       44
Si      13.47247601       5.55595547       5.50011530       45
Si      11.54783658       4.44476437       6.28584606       46
Si      11.54783658       4.44476437       8.64303833       47
Si      11.54783658       6.66714656       0.00000000       48
Si      11.54783658       6.66714656       2.35719227       49
Si      15.39711544       8.88952875       3.14292303       50
Si      15.39711544       8.88952875       5.50011530       51
Si      13.47247601       7.77833765       6.28584606       52
Si      13.47247601       7.77833765       8.64303833       53
