96
Lattice="7.69855772117656 0.0 0.0 0.0 15.39711544235312 0.0 0.0 0.0 24.970181517499995" Properties=species:S:1:pos:R:3:spacegroup_kinds:I:1 spacegroup="P 1" unit_cell=conventional occupancy="_JSON {\"0\": {\"Si\": 1.0}, \"1\": {\"Si\": 1.0}, \"2\": {\"Si\": 1.0}, \"3\": {\"Si\": 1.0}, \"4\": {\"Si\": 1.0}, \"5\": {\"Si\": 1.0}, \"6\": {\"Si\": 1.0}, \"7\": {\"Si\": 1.0}, \"8\": {\"Si\": 1.0}, \"9\": {\"Si\": 1.0}, \"10\": {\"Si\": 1.0}, \"11\": {\"Si\": 1.0}, \"12\": {\"Si\": 1.0}, \"13\": {\"Si\": 1.0}, \"14\": {\"Si\": 1.0}, \"15\": {\"Si\": 1.0}, \"16\": {\"Si\": 1.0}, \"17\": {\"Si\": 1.0}, \"18\": {\"Si\": 1.0}, \"19\": {\"Si\": 1.0}, \"20\": {\"Si\": 1.0}, \"21\": {\"Si\": 1.0}, \"22\": {\"Si\": 1.0}, \"23\": {\"Si\": 1.0}, \"24\": {\"Si\": 1.0}, \"25\": {\"Si\": 1.0}, \"26\": {\"Si\": 1.0}, \"27\": {\"Si\": 1.0}, \"28\": {\"Si\": 1.0}, \"29\": {\"Si\": 1.0}, \"30\": {\"Si\": 1.0}, \"31\": {\"Si\": 1.0}, \"32\": {\"Si\": 1.0}, \"33\": {\"Si\": 1.0}, \"34\": {\"Si\": 1.0}, \"35\": {\"Si\": 1.0}, \"36\": {\"Si\": 1.0}, \"37\": {\"Si\": 1.0}, \"38\": {\"Si\": 1.0}, \"39\": {\"Si\": 1.0}, \"40\": {\"Si\": 1.0}, \"41\": {\"Si\": 1.0}, \"42\": {\"Si\": 1.0}, \"43\": {\"Si\": 1.0}, \"44\": {\"Si\": 1.0}, \"45\": {\"Si\": 1.0}, \"46\": {\"Si\": 1.0}, \"47\": {\"Si\": 1.0}, \"48\": {\"Si\": 1.0}, \"49\": {\"Si\": 1.0}, \"50\": {\"Si\": 1.0}, \"51\": {\"Si\": 1.0}, \"52\": {\"Si\": 1.0}, \"53\": {\"Si\": 1.0}, \"54\": {\"Si\": 1.0}, \"55\": {\"Si\": 1.0}, \"56\": {\"Si\": 1.0}, \"57\": {\"Si\": 1.0}, \"58\": {\"Si\": 1.0}, \"59\": {\"Si\": 1.0}, \"60\": {\"Si\": 1.0}, \"61\": {\"Si\": 1.0}, \"62\": {\"Si\": 1.0}, \"63\": {\"Si\": 1.0}}" pbc="T T F"
Si       0.00000000       1.92463943       4.08277678        0
Si       0.00000000       0.00000000       0.00000000        1
Si       1.92463943       0.00000000       1.36092559        2
Si       1.92463943       1.92463943       2.72185118        3
Si      -0.00528562       1.92720239       9.48945571        4
Si       0.00000000       0.00000000       5.44370237        5
Si       1.91328751       0.00118315       6.80292698        6
Si       1.92513429       1.92509529       8.13375034        7
Si       0.00000000       5.77391829       4.08277678        8
Si       0.00000000       3.84927886       0.00000000        9
Si       1.92463943       3.84927886       1.36092559       10
Si       1.92463943       5.77391829       2.72185118       11
Si       0.00049549       5.78969658       9.50706822       12
Si       0.00000002       3.84965133       5.43502715       13
Si       1.92357845       3.85130883       6.78554221       14
Si       1.92530831       5.77364846       8.16328976       15
Si       0.00000000       9.62319715       4.08277678       16
Si       0.00000000       7.69855772       0.00000000       17
Si       1.92463943       7.69855772       1.36092559       18
Si       1.92463943       9.62319715       2.72185118       19
Si      -0.00631251       9.62073835       9.49748838       20
Si       0.00000000       7.69855772       5.46935297       21
Si       1.92154894       7.69528270       6.80705961       22
Si       1.92448052       9.62904306       8.17886747       23
Si       0.00000000      13.47247601       4.08277678       24
Si       0.00000000      11.54783658       0.00000000       25
Si       1.92463943      11.54783658       1.36092559       26
Si       1.92463943      13.47247601       2.72185118       27
Si      -0.00915184      13.45013476       9.51183384       28
Si      -0.00000017      11.54527711       5.42994884       29
Si       1.92489673      11.54616424       6.78529946       30
Si       1.92400708      13.46937828       8.18432910       31
Si       3.84927886       1.92463943       4.08277678       32
Si       3.84927886       0.00000000       0.00000000       33
Si       5.77391829       0.00000000       1.36092559       34
Si       5.77391829       1.92463943       2.72185118       35
Si       3.84793279       1.92110132       9.49411421       36
Si       3.84927837      -0.00000000       5.48047757       37
Si       5.78484324       0.00026442       6.78228515       38
Si       5.77639891       1.93190229       8.13014334       39
Si       3.84927886       5.77391829       4.08277678       40
Si       3.84927886       3.84927886       0.00000000       41
Si       5.77391829       3.84927886       1.36092559       42
Si       5.77391829       5.77391829       2.72185118       43
Si       3.84652008       5.78008082       9.51348155       44
Si       3.84927858       3.84999182       5.43586577       45
Si       5.77307752       3.84648755       6.78468525       46
Si       5.77256639       5.75996413       8.15914028       47
Si       3.84927886       9.62319715       4.08277678       48
Si       3.84927886       7.69855772       0.00000000       49
Si       5.77391829       7.69855772       1.36092559       50
Si       5.77391829       9.62319715       2.72185118       51
Si       3.85305788       9.62061077       9.50631544       52
Si       3.84927871       7.69855773       5.47604390       53
Si       5.77755960       7.69891314       6.80326605       54
Si       5.77156404       9.62335257       8.13588292       55
Si       3.84927886      13.47247601       4.08277678       56
Si       3.84927886      11.54783658       0.00000000       57
Si       5.77391829      11.54783658       1.36092559       58
Si       5.77391829      13.47247601       2.72185118       59
Si       3.85087154      13.46499937       9.52743277       60
Si       3.84927853      11.54857071       5.43143173       61
Si       5.76783114      11.55205293       6.78657963       62
Si       5.77438973      13.46487106       8.16874472       63
Si      -0.00770468      -0.03971086      10.82632981        0
Si      -0.00161962       7.72283049      10.88139406        0
Si       3.85047655       0.01302552      10.90153918        0
Si       3.85521554       7.69831479      10.90651715        0
Si       3.85179172      11.53541987      10.89993619        0
Si      -0.00926118      11.52933297      10.88317802        0
Si       3.85297963       3.83860909      10.85592308        0
Si      -0.00686746       3.90519333      10.83836466        0
Si       5.77851737      11.51181206      12.23539778        0
Si       5.78458011       3.88015416      12.20771611        0
Si       5.78591946       7.70197806      12.26627237        0
Si       5.80479727      -0.04925825      12.24880372        0
Si       1.91959842       7.72622889      12.25134467        0
Si       1.89340258      -0.05774114      12.24018924        0
Si       1.90928916      11.54575925      12.24100771        0
Si       1.91772184       3.89024949      12.18866826        0
Si       1.87670510      13.44058277      13.63142196        0
Si       1.87054529       5.76494280      13.61161270        0
Si       1.88998388       9.63997224      13.63500811        0
Si       5.85464852      13.42618288      13.61527713        0
Si       5.83297063       5.74899941      13.63179559        0
Si       6.10123410       1.94789943      13.37451503        0
Si       5.80597443       9.60689232      13.65743542        0
Si       1.54720938       1.96195535      13.32107213        0
Si       0.03253470       2.69843679      15.22468101        0
Si       0.01335258       5.08910156      14.93309569        0
Si       0.00258121      12.95087816      15.04089826        0
Si      -0.00963220      10.12116856      14.95500040        0
Si       3.82713776       9.35348800      14.86357970        0
Si       3.84814196       6.07477512      14.88275483        0
Si       3.86790113      13.43696591      14.86015401        0
Si       3.86579871       1.88699366      15.00676840        0
