64
Lattice="7.69855772117656 0.0 0.0 0.0 15.39711544235312 0.0 0.0 0.0 24.970181517499995" Properties=species:S:1:pos:R:3:spacegroup_kinds:I:1 spacegroup="P 1" unit_cell=conventional occupancy="_JSON {\"0\": {\"Si\": 1.0}, \"1\": {\"Si\": 1.0}, \"2\": {\"Si\": 1.0}, \"3\": {\"Si\": 1.0}, \"4\": {\"Si\": 1.0}, \"5\": {\"Si\": 1.0}, \"6\": {\"Si\": 1.0}, \"7\": {\"Si\": 1.0}, \"8\": {\"Si\": 1.0}, \"9\": {\"Si\": 1.0}, \"10\": {\"Si\": 1.0}, \"11\": {\"Si\": 1.0}, \"12\": {\"Si\": 1.0}, \"13\": {\"Si\": 1.0}, \"14\": {\"Si\": 1.0}, \"15\": {\"Si\": 1.0}, \"16\": {\"Si\": 1.0}, \"17\": {\"Si\": 1.0}, \"18\": {\"Si\": 1.0}, \"19\": {\"Si\": 1.0}, \"20\": {\"Si\": 1.0}, \"21\": {\"Si\": 1.0}, \"22\": {\"Si\": 1.0}, \"23\": {\"Si\": 1.0}, \"24\": {\"Si\": 1.0}, \"25\": {\"Si\": 1.0}, \"26\": {\"Si\": 1.0}, \"27\": {\"Si\": 1.0}, \"28\": {\"Si\": 1.0}, \"29\": {\"Si\": 1.0}, \"30\": {\"Si\": 1.0}, \"31\": {\"Si\": 1.0}, \"32\": {\"Si\": 1.0}, \"33\": {\"Si\": 1.0}, \"34\": {\"Si\": 1.0}, \"35\": {\"Si\": 1.0}, \"36\": {\"Si\": 1.0}, \"37\": {\"Si\": 1.0}, \"38\": {\"Si\": 1.0}, \"39\": {\"Si\": 1.0}, \"40\": {\"Si\": 1.0}, \"41\": {\"Si\": 1.0}, \"42\": {\"Si\": 1.0}, \"43\": {\"Si\": 1.0}, \"44\": {\"Si\": 1.0}, \"45\": {\"Si\": 1.0}, \"46\": {\"Si\": 1.0}, \"47\": {\"Si\": 1.0}, \"48\": {\"Si\": 1.0}, \"49\": {\"Si\": 1.0}, \"50\": {\"Si\": 1.0}, \"51\": {\"Si\": 1.0}, \"52\": {\"Si\": 1.0}, \"53\": {\"Si\": 1.0}, \"54\": {\"Si\": 1.0}, \"55\": {\"Si\": 1.0}, \"56\": {\"Si\": 1.0}, \"57\": {\"Si\": 1.0}, \"58\": {\"Si\": 1.0}, \"59\": {\"Si\": 1.0}, \"60\": {\"Si\": 1.0}, \"61\": {\"Si\": 1.0}, \"62\": {\"Si\": 1.0}, \"63\": {\"Si\": 1.0}}" pbc="T T F"
Si       0.00000000       1.92463943       4.08277678        0
Si       0.00000000       0.00000000       0.00000000        1
Si       1.92463943       0.00000000       1.36092559        2
Si       1.92463943       1.92463943       2.72185118        3
Si       0.00000000       1.92463943       9.52647915        4
Si       0.00000000       0.00000000       5.44370237        5
Si       1.92463943       0.00000000       6.80462796        6
Si       1.92463943       1.92463943       8.16555355        7
Si       0.00000000       5.77391829       4.08277678        8
Si       0.00000000       3.84927886       0.00000000        9
Si       1.92463943       3.84927886       1.36092559       10
Si       1.92463943       5.77391829       2.72185118       11
Si       0.00000000       5.77391829       9.52647915       12
Si       0.00000000       3.84927886       5.44370237       13
Si       1.92463943       3.84927886       6.80462796       14
Si       1.92463943       5.77391829       8.16555355       15
Si       0.00000000       9.62319715       4.08277678       16
Si       0.00000000       7.69855772       0.00000000       17
Si       1.92463943       7.69855772       1.36092559       18
Si       1.92463943       9.62319715       2.72185118       19
Si       0.00000000       9.62319715       9.52647915       20
Si       0.00000000       7.69855772       5.44370237       21
Si       1.92463943       7.69855772       6.80462796       22
Si       1.92463943       9.62319715       8.16555355       23
Si       0.00000000      13.47247601       4.08277678       24
Si       0.00000000      11.54783658       0.00000000       25
Si       1.92463943      11.54783658       1.36092559       26
Si       1.92463943      13.47247601       2.72185118       27
Si       0.00000000      13.47247601       9.52647915       28
Si       0.00000000      11.54783658       5.44370237       29
Si       1.92463943      11.54783658       6.80462796       30
Si       1.92463943      13.47247601       8.16555355       31
Si       3.84927886       1.92463943       4.08277678       32
Si       3.84927886       0.00000000       0.00000000       33
Si       5.77391829       0.00000000       1.36092559       34
Si       5.77391829       1.92463943       2.72185118       35
Si       3.84927886       1.92463943       9.52647915       36
Si       3.84927886       0.00000000       5.44370237       37
Si       5.77391829       0.00000000       6.80462796       38
Si       5.77391829       1.92463943       8.16555355       39
Si       3.84927886       5.77391829       4.08277678       40
Si       3.84927886       3.84927886       0.00000000       41
Si       5.77391829       3.84927886       1.36092559       42
Si       5.77391829       5.77391829       2.72185118       43
Si       3.84927886       5.77391829       9.52647915       44
Si       3.84927886       3.84927886       5.44370237       45
Si       5.77391829       3.84927886       6.80462796       46
Si       5.77391829       5.77391829       8.16555355       47
Si       3.84927886       9.62319715       4.08277678       48
Si       3.84927886       7.69855772       0.00000000       49
Si       5.77391829       7.69855772       1.36092559       50
Si       5.77391829       9.62319715       2.72185118       51
Si       3.84927886       9.62319715       9.52647915       52
Si       3.84927886       7.69855772       5.44370237       53
Si       5.77391829       7.69855772       6.80462796       54
Si       5.77391829       9.62319715       8.16555355       55
Si       3.84927886      13.47247601       4.08277678       56
Si       3.84927886      11.54783658       0.00000000       57
Si       5.77391829      11.54783658       1.36092559       58
Si       5.77391829      13.47247601       2.72185118       59
Si       3.84927886      13.47247601       9.52647915       60
Si       3.84927886      11.54783658       5.44370237       61
Si       5.77391829      11.54783658       6.80462796       62
Si       5.77391829      13.47247601       8.16555355       63
