84
Lattice="11.547836581764841 0.0 0.0 5.77391829088242 10.00071983855961 0.0 0.0 0.0 24.928884386361588" Properties=species:S:1:pos:R:3:spacegroup_kinds:I:1 spacegroup="P 1" unit_cell=conventional occupancy="_JSON {\"0\": {\"Si\": 1.0}, \"1\": {\"Si\": 1.0}, \"2\": {\"Si\": 1.0}, \"3\": {\"Si\": 1.0}, \"4\": {\"Si\": 1.0}, \"5\": {\"Si\": 1.0}, \"6\": {\"Si\": 1.0}, \"7\": {\"Si\": 1.0}, \"8\": {\"Si\": 1.0}, \"9\": {\"Si\": 1.0}, \"10\": {\"Si\": 1.0}, \"11\": {\"Si\": 1.0}, \"12\": {\"Si\": 1.0}, \"13\": {\"Si\": 1.0}, \"14\": {\"Si\": 1.0}, \"15\": {\"Si\": 1.0}, \"16\": {\"Si\": 1.0}, \"17\": {\"Si\": 1.0}, \"18\": {\"Si\": 1.0}, \"19\": {\"Si\": 1.0}, \"20\": {\"Si\": 1.0}, \"21\": {\"Si\": 1.0}, \"22\": {\"Si\": 1.0}, \"23\": {\"Si\": 1.0}, \"24\": {\"Si\": 1.0}, \"25\": {\"Si\": 1.0}, \"26\": {\"Si\": 1.0}, \"27\": {\"Si\": 1.0}, \"28\": {\"Si\": 1.0}, \"29\": {\"Si\": 1.0}, \"30\": {\"Si\": 1.0}, \"31\": {\"Si\": 1.0}, \"32\": {\"Si\": 1.0}, \"33\": {\"Si\": 1.0}, \"34\": {\"Si\": 1.0}, \"35\": {\"Si\": 1.0}, \"36\": {\"Si\": 1.0}, \"37\": {\"Si\": 1.0}, \"38\": {\"Si\": 1.0}, \"39\": {\"Si\": 1.0}, \"40\": {\"Si\": 1.0}, \"41\": {\"Si\": 1.0}, \"42\": {\"Si\": 1.0}, \"43\": {\"Si\": 1.0}, \"44\": {\"Si\": 1.0}, \"45\": {\"Si\": 1.0}, \"46\": {\"Si\": 1.0}, \"47\": {\"Si\": 1.0}, \"48\": {\"Si\": 1.0}, \"49\": {\"Si\": 1.0}, \"50\": {\"Si\": 1.0}, \"51\": {\"Si\": 1.0}, \"52\": {\"Si\": 1.0}, \"53\": {\"Si\": 1.0}}" pbc="T T F"
Si       0.00000000       0.00000000       0.00000000        0
Si       0.00000000       0.00000000       2.35719227        1
Si       3.84927886       2.22238219       3.14292303        2
Si       3.84544310       2.22294780       5.49320533        3
Si       1.92284618       1.11647023       6.28773869        4
Si       1.87889454       1.08897549       8.69504399        5
Si       1.92463943       3.33357328       0.00000000        6
Si       1.92463943       3.33357328       2.35719227        7
Si       5.77391829       5.55595547       3.14292303        8
Si       5.76961389       5.55313153       5.50297656        9
Si       3.84273698       4.44184832       6.29355308       10
Si       3.83344607       4.45125488       8.65206517       11
Si       3.84927886       6.66714656       0.00000000       12
Si       3.84927886       6.66714656       2.35719227       13
Si       7.69855772       8.88952875       3.14292303       14
Si       7.69286933       8.89098666       5.50248689       15
Si       5.76712289       7.77589723       6.28919556       16
Si       5.77943815       7.77610181       8.61250979       17
Si       3.84927886       0.00000000       0.00000000       18
Si       3.84927886       0.00000000       2.35719227       19
Si       7.69855772       2.22238219       3.14292303       20
Si       7.70108813       2.22204860       5.49938808       21
Si       5.77022147       1.11450440       6.27350336       22
Si       5.76592585       1.10346255       8.61237147       23
Si       5.77391829       3.33357328       0.00000000       24
Si       5.77391829       3.33357328       2.35719227       25
Si       9.62319715       5.55595547       3.14292303       26
Si       9.63075742       5.55665113       5.50467115       27
Si       7.69926511       4.44776352       6.28123269       28
Si       7.72389123       4.43471574       8.59177091       29
Si       7.69855772       6.66714656       0.00000000       30
Si       7.69855772       6.66714656       2.35719227       31
Si      11.54783658       8.88952875       3.14292303       32
Si      11.54970352       8.89183219       5.49969081       33
Si       9.62666715       7.78124338       6.28988094       34
Si       9.56761628       7.73902670       8.69996914       35
Si       7.69855772       0.00000000       0.00000000       36
Si       7.69855772       0.00000000       2.35719227       37
Si      11.54783658       2.22238219       3.14292303       38
Si      11.54371942       2.21826994       5.49787305       39
Si       9.62458483       1.10773843       6.27376183       40
Si       9.63422980       1.12782094       8.58967961       41
Si       9.62319715       3.33357328       0.00000000       42
Si       9.62319715       3.33357328       2.35719227       43
Si      13.47247601       5.55595547       3.14292303       44
Si      13.46984925       5.55701304       5.49867843       45
Si      11.55054196       4.43765245       6.30765823       46
Si      11.48589095       4.41098871       8.72031952       47
Si      11.54783658       6.66714656       0.00000000       48
Si      11.54783658       6.66714656       2.35719227       49
Si      15.39711544       8.88952875       3.14292303       50
Si      15.39400460       8.88756228       5.50004484       51
Si      13.46830374       7.77627179       6.29469585       52
Si      13.46283226       7.76554208       8.64553475       53
Si       7.61861109       6.60543903       9.47082591        0
Si      11.52950007       6.65640308       9.45901301        0
Si       9.53283220       3.27633758       9.50194821        0
Si      -0.07291109      -0.04473658       9.45910010        0
Si       3.87936355       6.68838761       9.40276242        0
Si       5.79012958       3.34634819       9.32139676        0
Si       3.84330080      -0.00962159       9.45403553        0
Si       7.72207217       0.01672935       9.34416376        0
Si       1.90409823       3.32750562       9.45869560        0
Si       8.15155089       0.29154635      11.64288301        0
Si       8.83998228       2.85253518      11.72604453        0
Si       6.25277778       3.56567186      11.62658152        0
Si       7.01957540       6.20396234      11.74584113        0
Si      -0.62937647      -0.39064823      11.75087079        0
Si       4.34990767       6.93417485      11.68055907        0
Si       3.89011210       0.03381753      11.72949976        0
Si      11.59833000       6.66761545      11.85191091        0
Si       1.93078695       3.34660561      11.84695902        0
Si       4.10664170       2.35619802      12.45127574        0
Si      11.80833269       9.03552797      12.41697599        0
Si      13.79699574       5.71854569      12.32827733        0
Si      11.26727182       2.10319341      12.47446513        0
Si       9.42599228       5.37386247      12.38705409        0
Si       7.55012326       8.76190861      12.37876740        0
Si       8.39834862       9.08884558      14.54847911        0
Si      10.77320279       9.22103192      14.60616241        0
Si       3.83817348       1.37405722      14.60879633        0
Si       9.76555810       6.07968900      14.54204570        0
Si      13.24862705       5.46479282      14.71732545        0
Si      11.61649303       2.30101067      14.58584706        0
