96
Lattice="7.69855772117656 0.0 0.0 0.0 15.39711544235312 0.0 0.0 0.0 24.970181517499995" Properties=species:S:1:pos:R:3:spacegroup_kinds:I:1 spacegroup="P 1" unit_cell=conventional occupancy="_JSON {\"0\": {\"Si\": 1.0}, \"1\": {\"Si\": 1.0}, \"2\": {\"Si\": 1.0}, \"3\": {\"Si\": 1.0}, \"4\": {\"Si\": 1.0}, \"5\": {\"Si\": 1.0}, \"6\": {\"Si\": 1.0}, \"7\": {\"Si\": 1.0}, \"8\": {\"Si\": 1.0}, \"9\": {\"Si\": 1.0}, \"10\": {\"Si\": 1.0}, \"11\": {\"Si\": 1.0}, \"12\": {\"Si\": 1.0}, \"13\": {\"Si\": 1.0}, \"14\": {\"Si\": 1.0}, \"15\": {\"Si\": 1.0}, \"16\": {\"Si\": 1.0}, \"17\": {\"Si\": 1.0}, \"18\": {\"Si\": 1.0}, \"19\": {\"Si\": 1.0}, \"20\": {\"Si\": 1.0}, \"21\": {\"Si\": 1.0}, \"22\": {\"Si\": 1.0}, \"23\": {\"Si\": 1.0}, \"24\": {\"Si\": 1.0}, \"25\": {\"Si\": 1.0}, \"26\": {\"Si\": 1.0}, \"27\": {\"Si\": 1.0}, \"28\": {\"Si\": 1.0}, \"29\": {\"Si\": 1.0}, \"30\": {\"Si\": 1.0}, \"31\": {\"Si\": 1.0}, \"32\": {\"Si\": 1.0}, \"33\": {\"Si\": 1.0}, \"34\": {\"Si\": 1.0}, \"35\": {\"Si\": 1.0}, \"36\": {\"Si\": 1.0}, \"37\": {\"Si\": 1.0}, \"38\": {\"Si\": 1.0}, \"39\": {\"Si\": 1.0}, \"40\": {\"Si\": 1.0}, \"41\": {\"Si\": 1.0}, \"42\": {\"Si\": 1.0}, \"43\": {\"Si\": 1.0}, \"44\": {\"Si\": 1.0}, \"45\": {\"Si\": 1.0}, \"46\": {\"Si\": 1.0}, \"47\": {\"Si\": 1.0}, \"48\": {\"Si\": 1.0}, \"49\": {\"Si\": 1.0}, \"50\": {\"Si\": 1.0}, \"51\": {\"Si\": 1.0}, \"52\": {\"Si\": 1.0}, \"53\": {\"Si\": 1.0}, \"54\": {\"Si\": 1.0}, \"55\": {\"Si\": 1.0}, \"56\": {\"Si\": 1.0}, \"57\": {\"Si\": 1.0}, \"58\": {\"Si\": 1.0}, \"59\": {\"Si\": 1.0}, \"60\": {\"Si\": 1.0}, \"61\": {\"Si\": 1.0}, \"62\": {\"Si\": 1.0}, \"63\": {\"Si\": 1.0}}" pbc="T T F"
Si       0.00000000       1.92463943       4.08277678        0
Si       0.00000000       0.00000000       0.00000000        1
Si       1.92463943       0.00000000       1.36092559        2
Si       1.92463943       1.92463943       2.72185118        3
Si       0.00146436       1.92196041       9.50610218        4
Si       0.00000001       0.00059349       5.44563958        5
Si       1.92482124       0.00271123       6.80074869        6
Si       1.92419496       1.92329599       8.15045187        7
Si       0.00000000       5.77391829       4.08277678        8
Si       0.00000000       3.84927886       0.00000000        9
Si       1.92463943       3.84927886       1.36092559       10
Si       1.92463943       5.77391829       2.72185118       11
Si       0.00045103       5.77180615       9.50384574       12
Si       0.00000000       3.84927886       5.44370237       13
Si       1.92361527       3.84842133       6.80164714       14
Si       1.92471529       5.77169228       8.15744023       15
Si       0.00000000       9.62319715       4.08277678       16
Si       0.00000000       7.69855772       0.00000000       17
Si       1.92463943       7.69855772       1.36092559       18
Si       1.92463943       9.62319715       2.72185118       19
Si       0.00178973       9.62051657       9.49037143       20
Si      -0.00000004       7.69785626       5.44648185       21
Si       1.92574405       7.69574163       6.80368269       22
Si       1.92566279       9.62316517       8.14282889       23
Si       0.00000000      13.47247601       4.08277678       24
Si       0.00000000      11.54783658       0.00000000       25
Si       1.92463943      11.54783658       1.36092559       26
Si       1.92463943      13.47247601       2.72185118       27
Si      -0.00065047      13.47404218       9.50354457       28
Si      -0.00000010      11.54783682       5.44726715       29
Si       1.92516469      11.55023583       6.80141921       30
Si       1.92482255      13.47503606       8.15536577       31
Si       3.84927886       1.92463943       4.08277678       32
Si       3.84927886       0.00000000       0.00000000       33
Si       5.77391829       0.00000000       1.36092559       34
Si       5.77391829       1.92463943       2.72185118       35
Si       3.84761993       1.92233323       9.50709012       36
Si       3.84927882       0.00092760       5.44554624       37
Si       5.77371562       0.00283676       6.79862544       38
Si       5.77429717       1.92337021       8.15681226       39
Si       3.84927886       5.77391829       4.08277678       40
Si       3.84927886       3.84927886       0.00000000       41
Si       5.77391829       3.84927886       1.36092559       42
Si       5.77391829       5.77391829       2.72185118       43
Si       3.84929953       5.76994491       9.50874948       44
Si       3.84927882       3.84927878       5.44848769       45
Si       5.77502807       3.84725291       6.80495106       46
Si       5.77380694       5.77255753       8.15695874       47
Si       3.84927886       9.62319715       4.08277678       48
Si       3.84927886       7.69855772       0.00000000       49
Si       5.77391829       7.69855772       1.36092559       50
Si       5.77391829       9.62319715       2.72185118       51
Si       3.84714241       9.62081211       9.49632638       52
Si       3.84927885       7.69780148       5.44456582       53
Si       5.77319551       7.69574858       6.79869401       54
Si       5.77282561       9.62207137       8.14774376       55
Si       3.84927886      13.47247601       4.08277678       56
Si       3.84927886      11.54783658       0.00000000       57
Si       5.77391829      11.54783658       1.36092559       58
Si       5.77391829      13.47247601       2.72185118       59
Si       3.84919398      13.47449880       9.50598970       60
Si       3.84927894      11.54783699       5.44582175       61
Si       5.77363462      11.54894912       6.80046003       62
Si       5.77369226      13.47531969       8.15407971       63
Si       0.00042134       3.84897834      10.86268112        0
Si       3.84861794       3.84488097      10.86242694        0
Si       0.00035177      11.54307268      10.85473722        0
Si       3.84927605      11.54334338      10.85048174        0
Si       3.84923121       0.00095823      10.86373826        0
Si       0.00079525       7.69713443      10.85742210        0
Si       3.84891310       7.69906697      10.85039876        0
Si      -0.00004584      -0.00092476      10.86691195        0
Si       5.76762977       7.69924915      12.19599024        0
Si       5.77111271      11.53635840      12.19704854        0
Si       5.77265546       3.84654334      12.20813165        0
Si       5.77191729       0.00544838      12.21107246        0
Si       1.93136323       7.69647432      12.19686488        0
Si       1.92773424      11.53995718      12.19741067        0
Si       1.92644505       0.00174412      12.21050650        0
Si       1.92576753       3.84219373      12.20910459        0
Si       1.92696224       1.92299309      13.55383964        0
Si       5.77140976       1.92854571      13.55217090        0
Si       1.93417860       9.61717124      13.54014400        0
Si       5.76561837       9.61716238      13.54342353        0
Si       1.95847880      13.46596679      13.55546350        0
Si       1.95976357       5.76903752      13.55676667        0
Si       5.73820939      13.46562507      13.55085976        0
Si       5.73890984       5.77385955      13.55683279        0
Si       0.00122513       9.44448899      14.86868015        0
Si       0.00020571       5.92926127      14.86780006        0
Si      -0.00231858      13.45420543      14.86824809        0
Si      -0.00073427       1.89284759      14.89535618        0
Si       3.85004508       1.86708070      14.89253013        0
Si       3.84808878       9.67727674      14.88802691        0
Si       3.85249683      13.47195598      14.89295553        0
Si       3.84892021       5.77442749      14.89969469        0
