678
Lattice="96.0829251508124 0.0 0.0 0.0 22.3 0.0 0.0 0.0 20.0" Properties=species:S:1:pos:R:3:spacegroup_kinds:I:1 spacegroup="P 1" unit_cell=conventional pbc="F T F"
C        0.50000000       0.50000000      10.00000000        0
C        2.95951215       0.50000000      10.00000000        1
C        5.41902429       0.50000000      10.00000000        2
C        7.87853644       0.50000000      10.00000000        3
C       10.33804859       0.50000000      10.00000000        4
C       12.79756073       0.50000000      10.00000000        5
C       15.25707288       0.50000000      10.00000000        6
C       17.71658503       0.50000000      10.00000000        7
C       20.17609718       0.50000000      10.00000000        8
C       22.63560932       0.50000000      10.00000000        9
C       25.35649722       0.86369211      10.00000000       10
C        0.50000000       1.92000000      10.00000000       11
C        2.95951215       1.92000000      10.00000000       12
C        5.41902429       1.92000000      10.00000000       13
C        7.87853644       1.92000000      10.00000000       14
C       10.33804859       1.92000000      10.00000000       15
C       12.79756073       1.92000000      10.00000000       16
C       15.25707288       1.92000000      10.00000000       17
C       17.71658503       1.92000000      10.00000000       18
C       20.17609718       1.92000000      10.00000000       19
C       22.63560932       1.92000000      10.00000000       20
C       25.21793770       2.22690445      10.00000000       21
C        1.72975607       2.63000000      10.00000000       22
C        4.18926822       2.63000000      10.00000000       23
C        6.64878037       2.63000000      10.00000000       24
C        9.10829251       2.63000000      10.00000000       25
C       11.56780466       2.63000000      10.00000000       26
C       14.02731681       2.63000000      10.00000000       27
C       16.48682896       2.63000000      10.00000000       28
C       18.94634110       2.63000000      10.00000000       29
C       21.40585325       2.63000000      10.00000000       30
C       23.87970040       2.68085051      10.00000000       31
C        1.72975607       4.05000000      10.00000000       32
C        4.18926822       4.05000000      10.00000000       33
C        6.64878037       4.05000000      10.00000000       34
C        9.10829251       4.05000000      10.00000000       35
C       11.56780466       4.05000000      10.00000000       36
C       14.02731681       4.05000000      10.00000000       37
C       16.48682896       4.05000000      10.00000000       38
C       18.94634110       4.05000000      10.00000000       39
C       21.40585325       4.05000000      10.00000000       40
C       23.85213583       4.05424805      10.00000000       41
C        0.50000000       4.76000000      10.00000000       42
C        2.95951215       4.76000000      10.00000000       43
C        5.41902429       4.76000000      10.00000000       44
C        7.87853644       4.76000000      10.00000000       45
C       10.33804859       4.76000000      10.00000000       46
C       12.79756073       4.76000000      10.00000000       47
C       15.25707288       4.76000000      10.00000000       48
C       17.71658503       4.76000000      10.00000000       49
C       20.17609718       4.76000000      10.00000000       50
C       22.63566223       4.76118646      10.00000000       51
C       25.17216307       4.68032016      10.00000000       52
C        0.50000000       6.18000000      10.00000000       53
C        2.95951215       6.18000000      10.00000000       54
C        5.41902429       6.18000000      10.00000000       55
C        7.87853644       6.18000000      10.00000000       56
C       10.33804859       6.18000000      10.00000000       57
C       12.79756073       6.18000000      10.00000000       58
C       15.25707288       6.18000000      10.00000000       59
C       17.71658503       6.18000000      10.00000000       60
C       20.17609718       6.18000000      10.00000000       61
C       22.63950543       6.18410545      10.00000000       62
C       25.14988734       6.16095026      10.00000000       63
C        1.72975607       6.89000000      10.00000000       64
C        4.18926822       6.89000000      10.00000000       65
C        6.64878037       6.89000000      10.00000000       66
C        9.10829251       6.89000000      10.00000000       67
C       11.56780466       6.89000000      10.00000000       68
C       14.02731681       6.89000000      10.00000000       69
C       16.48682896       6.89000000      10.00000000       70
C       18.94634110       6.89000000      10.00000000       71
C       21.40585325       6.89000000      10.00000000       72
C       23.88233771       6.90189962      10.00000000       73
C        1.72975607       8.31000000      10.00000000       74
C        4.18926822       8.31000000      10.00000000       75
C        6.64878037       8.31000000      10.00000000       76
C        9.10829251       8.31000000      10.00000000       77
C       11.56780466       8.31000000      10.00000000       78
C       14.02731681       8.31000000      10.00000000       79
C       16.48682896       8.31000000      10.00000000       80
C       18.94634110       8.31000000      10.00000000       81
C       21.40585325       8.31000000      10.00000000       82
C       23.90935397       8.36486867      10.00000000       83
C        0.50000000       9.02000000      10.00000000       84
C        2.95951215       9.02000000      10.00000000       85
C        5.41902429       9.02000000      10.00000000       86
C        7.87853644       9.02000000      10.00000000       87
C       10.33804859       9.02000000      10.00000000       88
C       12.79756073       9.02000000      10.00000000       89
C       15.25707288       9.02000000      10.00000000       90
C       17.71658503       9.02000000      10.00000000       91
C       20.17609718       9.02000000      10.00000000       92
C       22.64332851       9.01727836      10.00000000       93
C       25.11906440       9.11770760      10.00000000       94
C        0.50000000      10.44000000      10.00000000       95
C        2.95951215      10.44000000      10.00000000       96
C        5.41902429      10.44000000      10.00000000       97
C        7.87853644      10.44000000      10.00000000       98
C       10.33804859      10.44000000      10.00000000       99
C       12.79756073      10.44000000      10.00000000      100
C       15.25707288      10.44000000      10.00000000      101
C       17.71658503      10.44000000      10.00000000      102
C       20.17609718      10.44000000      10.00000000      103
C       22.64142893      10.44070697      10.00000000      104
C       25.09040269      10.57963471      10.00000000      105
C        1.72975607      11.15000000      10.00000000      106
C        4.18926822      11.15000000      10.00000000      107
C        6.64878037      11.15000000      10.00000000      108
C        9.10829251      11.15000000      10.00000000      109
C       11.56780466      11.15000000      10.00000000      110
C       14.02731681      11.15000000      10.00000000      111
C       16.48682896      11.15000000      10.00000000      112
C       18.94634110      11.15000000      10.00000000      113
C       21.40585325      11.15000000      10.00000000      114
C       23.83545987      11.14622690      10.00000000      115
C        1.72975607      12.57000000      10.00000000      116
C        4.18926822      12.57000000      10.00000000      117
C        6.64878037      12.57000000      10.00000000      118
C        9.10829251      12.57000000      10.00000000      119
C       11.56780466      12.57000000      10.00000000      120
C       14.02731681      12.57000000      10.00000000      121
C       16.48682896      12.57000000      10.00000000      122
C       18.94634110      12.57000000      10.00000000      123
C       21.40585325      12.57000000      10.00000000      124
C       23.88187920      12.54962505      10.00000000      125
C        0.50000000      13.28000000      10.00000000      126
C        2.95951215      13.28000000      10.00000000      127
C        5.41902429      13.28000000      10.00000000      128
C        7.87853644      13.28000000      10.00000000      129
C       10.33804859      13.28000000      10.00000000      130
C       12.79756073      13.28000000      10.00000000      131
C       15.25707288      13.28000000      10.00000000      132
C       17.71658503      13.28000000      10.00000000      133
C       20.17609718      13.28000000      10.00000000      134
C       22.63560932      13.28000000      10.00000000      135
C       25.20310671      13.01926988      10.00000000      136
C        0.50000000      14.70000000      10.00000000      137
C        2.95951215      14.70000000      10.00000000      138
C        5.41902429      14.70000000      10.00000000      139
C        7.87853644      14.70000000      10.00000000      140
C       10.33804859      14.70000000      10.00000000      141
C       12.79756073      14.70000000      10.00000000      142
C       15.25707288      14.70000000      10.00000000      143
C       17.71658503      14.70000000      10.00000000      144
C       20.17609718      14.70000000      10.00000000      145
C       22.63560932      14.70000000      10.00000000      146
C       25.13701870      14.56062189      10.00000000      147
C        1.72975607      15.41000000      10.00000000      148
C        4.18926822      15.41000000      10.00000000      149
C        6.64878037      15.41000000      10.00000000      150
C        9.10829251      15.41000000      10.00000000      151
C       11.56780466      15.41000000      10.00000000      152
C       14.02731681      15.41000000      10.00000000      153
C       16.48682896      15.41000000      10.00000000      154
C       18.94634110      15.41000000      10.00000000      155
C       21.40585325      15.41000000      10.00000000      156
C       23.87723492      15.38765271      10.00000000      157
C        1.72975607      16.83000000      10.00000000      158
C        4.18926822      16.83000000      10.00000000      159
C        6.64878037      16.83000000      10.00000000      160
C        9.10829251      16.83000000      10.00000000      161
C       11.56780466      16.83000000      10.00000000      162
C       14.02731681      16.83000000      10.00000000      163
C       16.48682896      16.83000000      10.00000000      164
C       18.94634110      16.83000000      10.00000000      165
C       21.40585325      16.83000000      10.00000000      166
C       23.90454985      16.80306672      10.00000000      167
C        0.50000000      17.54000000      10.00000000      168
C        2.95951215      17.54000000      10.00000000      169
C        5.41902429      17.54000000      10.00000000      170
C        7.87853644      17.54000000      10.00000000      171
C       10.33804859      17.54000000      10.00000000      172
C       12.79756073      17.54000000      10.00000000      173
C       15.25707288      17.54000000      10.00000000      174
C       17.71658503      17.54000000      10.00000000      175
C       20.17609718      17.54000000      10.00000000      176
C       22.63560932      17.54000000      10.00000000      177
C       25.14255325      17.41212736      10.00000000      178
C        0.50000000      18.96000000      10.00000000      179
C        2.95951215      18.96000000      10.00000000      180
C        5.41902429      18.96000000      10.00000000      181
C        7.87853644      18.96000000      10.00000000      182
C       10.33804859      18.96000000      10.00000000      183
C       12.79756073      18.96000000      10.00000000      184
C       15.25707288      18.96000000      10.00000000      185
C       17.71658503      18.96000000      10.00000000      186
C       20.17609718      18.96000000      10.00000000      187
C       22.64144774      18.95502922      10.00000000      188
C       25.17343317      18.82273702      10.00000000      189
C        1.72975607      19.67000000      10.00000000      190
C        4.18926822      19.67000000      10.00000000      191
C        6.64878037      19.67000000      10.00000000      192
C        9.10829251      19.67000000      10.00000000      193
C       11.56780466      19.67000000      10.00000000      194
C       14.02731681      19.67000000      10.00000000      195
C       16.48682896      19.67000000      10.00000000      196
C       18.94634110      19.67000000      10.00000000      197
C       21.40585325      19.67000000      10.00000000      198
C       23.93868283      19.57848272      10.00000000      199
C        1.72975607      21.09000000      10.00000000      200
C        4.18926822      21.09000000      10.00000000      201
C        6.64878037      21.09000000      10.00000000      202
C        9.10829251      21.09000000      10.00000000      203
C       11.56780466      21.09000000      10.00000000      204
C       14.02731681      21.09000000      10.00000000      205
C       16.48682896      21.09000000      10.00000000      206
C       18.94634110      21.09000000      10.00000000      207
C       21.40585325      21.09000000      10.00000000      208
C       23.95892347      20.94965615      10.00000000      209
C        0.50000000      21.80000000      10.00000000      210
C        2.95951215      21.80000000      10.00000000      211
C        5.41902429      21.80000000      10.00000000      212
C        7.87853644      21.80000000      10.00000000      213
C       10.33804859      21.80000000      10.00000000      214
C       12.79756073      21.80000000      10.00000000      215
C       15.25707288      21.80000000      10.00000000      216
C       17.71658503      21.80000000      10.00000000      217
C       20.17609718      21.80000000      10.00000000      218
C       22.68459401      21.59510123      10.00000000      219
C       25.11272991      21.76385031      10.00000000      220
C       26.21765838      15.41216862      10.00000000        0
C       26.32484265       8.40410733      10.00000000        0
C       26.34106342       6.93254228      10.00000000        0
C       26.05439505      11.60925008      10.00000000        0
C       26.01611551       3.49798722      10.00000000        0
N       26.37014177      19.58574271      10.00000000        0
C       26.34165503      20.96565817      10.00000000        0
C       27.53265688      14.87787641      10.00000000        0
C       27.73587417      13.48758024      10.00000000        0
C       27.56210296       6.33971463      10.00000000        0
C       27.45490479       9.25545541      10.00000000        0
C       27.36803400      10.76684249      10.00000000        0
C       27.46940897      21.77923145      10.00000000        0
N       27.65435800      18.94419566      10.00000000        0
N       27.71219065      17.63836112      10.00000000        0
C       26.94309669       0.83211776      10.00000000        0
C       27.61499714       2.13440358      10.00000000        0
C       28.83790910      12.70432908      10.00000000        0
C       28.69070374      11.27110989      10.00000000        0
C       28.74371192       7.05033020      10.00000000        0
C       28.70922009       8.52620200      10.00000000        0
C       28.84228986       2.53879553      10.00000000        0
N       28.73148560      21.13456782      10.00000000        0
N       28.79069676      19.70732390      10.00000000        0
C       28.89003821      16.96066165      10.00000000        0
C       28.81572711      15.54313489      10.00000000        0
C       29.97946694       9.13086500      10.00000000        0
C       29.95209915      10.54688493      10.00000000        0
N       30.04207746       2.08658172      10.00000000        0
C       30.03234279      14.82897292      10.00000000        0
C       30.09459865      13.38060037      10.00000000        0
C       29.96408670       6.28105690      10.00000000        0
C       30.05752365       4.87813218      10.00000000        0
C       30.13486230      17.59945136      10.00000000        0
C       30.02338147      19.00732853      10.00000000        0
C       30.00014022      21.79756722      10.00000000        0
C       30.14091165       0.80760164      10.00000000        0
C       31.15793003       4.21780883      10.00000000        0
N       31.28403205      16.91507183      10.00000000        0
C       31.24968006      15.55371697      10.00000000        0
C       31.26167301      12.62750059      10.00000000        0
N       31.19134940      11.21620637      10.00000000        0
C       31.20326754       8.37499894      10.00000000        0
N       31.18797792       6.98307436      10.00000000        0
C       31.25148515      19.65651887      10.00000000        0
C       31.23822837      21.03720533      10.00000000        0
C       32.41052884       4.85064186      10.00000000        0
C       32.40966844       6.27745778      10.00000000        0
C       32.42781181       9.07034878      10.00000000        0
C       32.40277226      10.48917562      10.00000000        0
C       32.49864374      13.33963649      10.00000000        0
C       32.47663611      14.77841820      10.00000000        0
C       32.43476939      21.72442358      10.00000000        0
C       32.47108402      19.00139734      10.00000000        0
C       32.10344012       0.78181592      10.00000000        0
C       32.71457342       1.92040517      10.00000000        0
C       33.67649845      19.63882601      10.00000000        0
N       33.70037527      21.04526895      10.00000000        0
C       33.74031204       2.79430343      10.00000000        0
C       33.68885825       4.20100035      10.00000000        0
C       33.64534467       6.96640079      10.00000000        0
C       33.68542358       8.38225966      10.00000000        0
C       33.64173868      11.18313583      10.00000000        0
C       33.72599396      12.59988618      10.00000000        0
C       33.75650103      15.44800541      10.00000000        0
N       33.80720800      16.78915847      10.00000000        0
C       34.94424811       4.85828324      10.00000000        0
C       34.90060125       6.26209947      10.00000000        0
C       34.92312329       9.06536135      10.00000000        0
C       34.91183947      10.49123222      10.00000000        0
C       34.96208656      13.28966498      10.00000000        0
C       34.96672323      14.69074628      10.00000000        0
C       34.93318450      17.48006441      10.00000000        0
C       34.93330389      18.92505749      10.00000000        0
C       34.93178368      21.70386143      10.00000000        0
C       34.99267250       2.05021216      10.00000000        0
C       35.03265101       0.72096872      10.00000000        0
C       36.16615756      19.62863473      10.00000000        0
N       36.12663189      20.99575277      10.00000000        0
N       36.16081790      12.53687694      10.00000000        0
C       36.14052768      11.21031793      10.00000000        0
C       36.19564285       8.39946192      10.00000000        0
C       36.15884677       6.94731208      10.00000000        0
C       36.19733243       4.15129333      10.00000000        0
C       36.20167960       2.76151893      10.00000000        0
C       36.22917198      15.34509514      10.00000000        0
C       36.19443407      16.79847004      10.00000000        0
C       37.35479191      17.53595672      10.00000000        0
C       37.42406165      18.92851313      10.00000000        0
C       37.45475099      14.62360808      10.00000000        0
N       37.44443580      13.21646420      10.00000000        0
C       37.41256126       1.92177892      10.00000000        0
N       37.57236559       0.65037670      10.00000000        0
N       37.44411435       4.82313655      10.00000000        0
C       37.42274276       6.24858802      10.00000000        0
C       37.40599755       9.10886551      10.00000000        0
N       37.41472531      21.67496496      10.00000000        0
C       38.60747688       8.39427583      10.00000000        0
C       38.57586307       6.96842861      10.00000000        0
C       38.71644127      20.85642164      10.00000000        0
C       38.73872836      19.36125105      10.00000000        0
C       38.56936913      16.90932599      10.00000000        0
N       38.64629998      15.44066332      10.00000000        0
C       38.39043523      12.25038027      10.00000000        0
C       38.75892307      10.99530457      10.00000000        0
C       38.60268756       4.12587543      10.00000000        0
C       38.66994729       2.75543102      10.00000000        0
C       39.56410796      17.92044913      10.00000000        0
C       39.98578561       2.16278240      10.00000000        0
C       40.36754505       0.77682656      10.00000000        0
C       39.91514154      21.65222282      10.00000000        0
C       39.84368681       9.03164249      10.00000000        0
C       39.86909419      14.91706295      10.00000000        0
C       41.01983482       8.34078888      10.00000000        0
C       40.99531370      15.70411582      10.00000000        0
C       40.91660616      17.20110182      10.00000000        0
C       41.26544756       6.95175173      10.00000000        0
C       41.24363743       2.98230978      10.00000000        0
C       41.93022546       4.25968325      10.00000000        0
C       41.17122012      20.96432087      10.00000000        0
N       41.28778321      19.68576463      10.00000000        0
C       41.17020808       5.55032252      10.00000000        0
C       42.26426571      17.66679471      10.00000000        0
C       42.47127362      19.09931431      10.00000000        0
C       42.28484393       2.03568017      10.00000000        0
C       41.80093307       0.75867885      10.00000000        0
C       42.34473059      21.78731111      10.00000000        0
C       42.30417299       9.05558723      10.00000000        0
C       42.12762149      10.39120312      10.00000000        0
C       41.48842578      11.51549746      10.00000000        0
C       40.87388873      12.67590315      10.00000000        0
C       43.64316256       2.45539995      10.00000000        0
C       43.46906573       3.93203717      10.00000000        0
C       43.67561379      21.35091348      10.00000000        0
C       43.69736582      19.87088653      10.00000000        0
C       43.48370701      16.92513855      10.00000000        0
C       43.46737739      15.46839336      10.00000000        0
C       42.16747125      14.94319734      10.00000000        0
C       43.58745267       8.38587728      10.00000000        0
C       43.66363466       6.94502979      10.00000000        0
C       42.43070013       6.36732696      10.00000000        0
N       44.71523976       4.64240994      10.00000000        0
C       44.82855595       6.15075174      10.00000000        0
C       44.77864597       9.15704096      10.00000000        0
C       44.90392687      10.63124248      10.00000000        0
C       44.84569566      19.10331860      10.00000000        0
C       44.75702328      17.64146984      10.00000000        0
C       44.80968177      22.25783072      10.00000000        0
C       44.78308928       1.55342536      10.00000000        0
C       44.70115750      14.78455843      10.00000000        0
C       44.48622660      13.39674360      10.00000000        0
N       43.80659357      12.42602385      10.00000000        0
C       46.14970886      10.95541421      10.00000000        0
C       45.95243758      15.46796951      10.00000000        0
C       45.97418330      16.92018030      10.00000000        0
N       46.03331265      19.90047177      10.00000000        0
C       46.02916319      21.51273718      10.00000000        0
C       46.03371532       6.85873864      10.00000000        0
C       46.00488648       8.34860780      10.00000000        0
C       45.81697185       3.75898754      10.00000000        0
N       45.95311711       2.28111277      10.00000000        0
N       47.31058558      10.37358018      10.00000000        0
C       47.28506516       8.96817542      10.00000000        0
C       47.28172567       6.23927242      10.00000000        0
C       47.23295866      22.24639463      10.00000000        0
C       47.24040397      14.76045930      10.00000000        0
C       47.31867809      13.36420750      10.00000000        0
C       47.20480031      17.67873898      10.00000000        0
C       47.22726700      19.13421359      10.00000000        0
C       47.19148002       1.51244147      10.00000000        0
C       48.48051331       6.87823377      10.00000000        0
N       48.47665901       8.29063871      10.00000000        0
C       48.43797020      21.45745282      10.00000000        0
C       48.44840202      19.95264307      10.00000000        0
C       48.44362877      12.57902318      10.00000000        0
C       48.53970427      11.11396637      10.00000000        0
C       48.44631740       2.23335888      10.00000000        0
C       48.41729081       3.74950551      10.00000000        0
C       48.53109480      16.96600699      10.00000000        0
C       48.46608879      15.49643920      10.00000000        0
C       49.53133069       4.56461996      10.00000000        0
C       49.66116312       6.06549693      10.00000000        0
C       49.70539096      10.36805218      10.00000000        0
N       49.66800350       9.04257990      10.00000000        0
C       49.79907085      17.86129563      10.00000000        0
C       49.62793303      19.20889821      10.00000000        0
N       49.68463593      14.78702966      10.00000000        0
C       49.68462772      13.29626996      10.00000000        0
C       49.66569726      22.22576390      10.00000000        0
C       49.69359201       1.49510320      10.00000000        0
C       50.69385262      21.27288475      10.00000000        0
N       50.80797085       2.39952996      10.00000000        0
C       50.79028585       3.83529446      10.00000000        0
C       50.85755938       6.79330305      10.00000000        0
C       50.86430920       8.24243102      10.00000000        0
C       50.87196778      12.61803419      10.00000000        0
C       50.88214893      15.45324171      10.00000000        0
C       52.09883822      13.29355148      10.00000000        0
C       52.10663948      14.80075823      10.00000000        0
C       51.98125399      21.59800226      10.00000000        0
C       52.03298949       4.62281438      10.00000000        0
C       52.07480263       6.06398876      10.00000000        0
C       52.11522672       8.92851019      10.00000000        0
C       52.23050019      10.35139150      10.00000000        0
N       52.18696658       1.87641534      10.00000000        0
C       52.61616672       0.57193308      10.00000000        0
C       53.35209792      11.14787713      10.00000000        0
C       53.33840546      12.58967044      10.00000000        0
C       53.35597500       6.77566271      10.00000000        0
C       53.35174359       8.20910651      10.00000000        0
C       53.31897122       4.01053561      10.00000000        0
C       53.37571217       2.62254765      10.00000000        0
C       53.37685678      15.39705299      10.00000000        0
C       53.21692386      20.92253314      10.00000000        0
C       53.25471512      19.43408057      10.00000000        0
C       52.24791426      18.37306204      10.00000000        0
C       51.27509018      17.49901013      10.00000000        0
C       54.56519170      14.70447676      10.00000000        0
N       54.54803022      13.24125099      10.00000000        0
C       53.99222233      22.45665110      10.00000000        0
C       54.57670822       6.08213029      10.00000000        0
N       54.53315799       4.73654948      10.00000000        0
C       54.51562480       1.78753911      10.00000000        0
C       54.59780022       8.91540320      10.00000000        0
C       54.60302708      10.38583758      10.00000000        0
C       54.44671982      18.72677278      10.00000000        0
C       54.83136774      17.53005600      10.00000000        0
N       55.90362096      16.79003041      10.00000000        0
C       55.85356316      15.35036002      10.00000000        0
C       55.75683233       2.55836212      10.00000000        0
C       55.75467750       3.99761315      10.00000000        0
C       55.83605598       8.24270676      10.00000000        0
C       55.79814800      11.11478751      10.00000000        0
C       55.79004217      12.55084698      10.00000000        0
C       57.02936097       8.97667487      10.00000000        0
C       57.05796782      10.44631822      10.00000000        0
C       57.00460351      13.19924787      10.00000000        0
C       57.05508546      14.62044929      10.00000000        0
C       56.95595173       4.80651197      10.00000000        0
C       56.72261774       6.23406413      10.00000000        0
C       57.05807343       1.89872099      10.00000000        0
C       57.08242362       0.56301553      10.00000000        0
C       57.04064152      21.50115750      10.00000000        0
C       56.25994897      20.24577900      10.00000000        0
C       57.06911704      17.59125641      10.00000000        0
C       57.09876781      19.07766190      10.00000000        0
C       58.43700468      19.66036209      10.00000000        0
C       58.42148084      21.08346748      10.00000000        0
C       58.27087724      11.17271731      10.00000000        0
C       58.36520585       8.41630151      10.00000000        0
C       58.28949544      16.88799759      10.00000000        0
C       58.27270730      15.43153129      10.00000000        0
N       58.29660952       2.67981521      10.00000000        0
C       58.21724702       4.09109055      10.00000000        0
N       59.49241572       8.98687210      10.00000000        0
N       59.44459832      10.54589974      10.00000000        0
C       59.46468070      21.99495905      10.00000000        0
C       59.68503438      19.07656275      10.00000000        0
C       59.60061479      17.59551323      10.00000000        0
C       59.52922488      14.75122254      10.00000000        0
C       59.51743759      13.34818105      10.00000000        0
N       59.36509039       4.80853837      10.00000000        0
C       59.57833140       6.03321931      10.00000000        0
C       59.44841393       1.94092017      10.00000000        0
C       60.76257986      21.41814002      10.00000000        0
C       60.86950191      19.86189752      10.00000000        0
C       60.80426735      16.88975189      10.00000000        0
C       60.83382631      15.44133425      10.00000000        0
C       60.68898301      12.60423721      10.00000000        0
C       60.71308719      11.14483511      10.00000000        0
C       60.74468331       2.04907406      10.00000000        0
C       60.69626531       6.93669954      10.00000000        0
N       60.70766588       8.31199410      10.00000000        0
C       61.98688165       1.43591030      10.00000000        0
C       61.99228210      -0.09726388      10.00000000        0
C       62.10590297      19.19792205      10.00000000        0
C       62.02836635      17.66122667      10.00000000        0
C       62.00995482      14.70317155      10.00000000        0
C       61.96561975      13.32138705      10.00000000        0
C       61.92981590      10.51371989      10.00000000        0
C       61.99199693       6.24574424      10.00000000        0
C       62.11735362       4.91176338      10.00000000        0
C       63.15778271      11.06956830      10.00000000        0
N       63.15945712      12.56864847      10.00000000        0
C       63.09862567       3.89318631      10.00000000        0
C       63.13178627       2.32742688      10.00000000        0
C       63.27364288      17.11941373      10.00000000        0
N       63.20116260      20.01357896      10.00000000        0
C       63.19182404      21.45621123      10.00000000        0
N       63.25844326       7.04015124      10.00000000        0
C       63.43276839       8.40236279      10.00000000        0
C       64.49499750      17.14509900      10.00000000        0
C       64.36557751       1.55143165      10.00000000        0
C       64.42009769      -0.06543874      10.00000000        0
C       64.17215467       9.93660919      10.00000000        0
C       64.36575563      13.23438307      10.00000000        0
C       64.48900235      14.59066779      10.00000000        0
C       64.40491246       6.11933957      10.00000000        0
C       64.34198720       4.65959830      10.00000000        0
C       65.76754629      16.66814918      10.00000000        0
C       65.72473744      15.23925644      10.00000000        0
C       65.54371698       3.93356297      10.00000000        0
C       65.53248449       2.45197430      10.00000000        0
C       65.48803979       6.97009743      10.00000000        0
C       64.89093688       8.39819448      10.00000000        0
C       65.72743839      12.72529779      10.00000000        0
N       66.89125326      13.19162187      10.00000000        0
N       66.96080264      14.63398313      10.00000000        0
C       66.84771379      17.56503550      10.00000000        0
C       66.73515378      19.00719530      10.00000000        0
C       65.60616631      19.91505438      10.00000000        0
N       65.56521990      21.24794536      10.00000000        0
C       66.85971344       1.95667662      10.00000000        0
C       67.20717545       0.66438168      10.00000000        0
C       66.76047857       4.76599023      10.00000000        0
C       66.74497924       6.26139851      10.00000000        0
N       66.92023704      21.73406194      10.00000000        0
C       68.07579531       6.92499465      10.00000000        0
C       68.19502292       8.28352173      10.00000000        0
C       68.05015787       4.12664406      10.00000000        0
C       68.09088700       2.73994806      10.00000000        0
C       68.10188876      15.38237922      10.00000000        0
C       68.10537035      16.86029613      10.00000000        0
C       68.05793935      19.58814339      10.00000000        0
C       68.14197615      20.96213125      10.00000000        0
C       69.38279312       8.98745378      10.00000000        0
C       69.21698380      10.36975806      10.00000000        0
C       67.95681696      10.90422707      10.00000000        0
C       66.68596097      10.86110182      10.00000000        0
N       69.24458588      18.83930138      10.00000000        0
N       69.29910955      17.49993243      10.00000000        0
C       69.36180166      21.74206081      10.00000000        0
C       69.35066369      14.65126247      10.00000000        0
C       69.44144006      13.31443594      10.00000000        0
C       69.34706118       2.01800537      10.00000000        0
C       69.32995383       4.77646450      10.00000000        0
C       69.34078949       6.21607227      10.00000000        0
C       70.53576719      20.94107484      10.00000000        0
N       69.47112309       0.77093781      10.00000000        0
C       70.48339405      19.54658460      10.00000000        0
C       70.49123050      12.52885409      10.00000000        0
C       70.49004497       4.00759267      10.00000000        0
C       70.59730253       6.91787450      10.00000000        0
C       70.67391469       8.38833404      10.00000000        0
C       70.63205098      15.25353290      10.00000000        0
C       70.47769739      11.10986621      10.00000000        0
C       71.83173349      14.56016325      10.00000000        0
C       71.72247407       4.68482240      10.00000000        0
C       71.78833530       6.14587152      10.00000000        0
C       71.89741317       9.19713210      10.00000000        0
C       71.84101144      13.09385675      10.00000000        0
C       71.82777357      21.63105110      10.00000000        0
C       71.77657122      18.88228604      10.00000000        0
C       72.06664054      17.47088868      10.00000000        0
C       71.89612967       0.65140592      10.00000000        0
C       72.04270947       1.88211448      10.00000000        0
C       71.82897071      10.68195368      10.00000000        0
C       73.18850754       2.53027661      10.00000000        0
N       73.04063079       4.06227935      10.00000000        0
N       73.01330496      16.66190959      10.00000000        0
C       73.09326575      15.18773136      10.00000000        0
C       72.77674019      12.09012548      10.00000000        0
C       73.02183452       6.91926059      10.00000000        0
C       73.07373860       8.40048492      10.00000000        0
C       73.16191351      21.21703984      10.00000000        0
C       73.12521088      19.73284080      10.00000000        0
C       74.24401754      14.38466559      10.00000000        0
C       74.09494594      12.79537716      10.00000000        0
C       74.40768878      19.26932128      10.00000000        0
C       74.20378701       6.17078124      10.00000000        0
C       74.19210689       4.73994447      10.00000000        0
C       74.47568954       9.01087699      10.00000000        0
C       75.18920447      10.46757554      10.00000000        0
C       74.35389426       1.61651475      10.00000000        0
C       74.27435876      -0.05876788      10.00000000        0
N       75.51871929      19.98196557      10.00000000        0
C       75.03245332      11.83338379      10.00000000        0
C       75.51583946       4.20423971      10.00000000        0
N       75.54660493       2.27625461      10.00000000        0
C       75.51828348       6.64761245      10.00000000        0
C       75.58261886       8.11131536      10.00000000        0
C       75.54336157      21.63643222      10.00000000        0
C       76.84316734       8.81244609      10.00000000        0
C       76.63452577      10.18251525      10.00000000        0
C       76.26031344       5.32859341      10.00000000        0
C       76.77647560      22.30704437      10.00000000        0
C       76.77361789       1.58623880      10.00000000        0
C       76.67122514      19.14408634      10.00000000        0
C       76.57959532      17.58505051      10.00000000        0
C       75.53225418      16.61686314      10.00000000        0
N       75.47598301      15.25606846      10.00000000        0
C       76.67367773      14.49226175      10.00000000        0
C       76.56045844      13.03175413      10.00000000        0
C       77.81286329      12.44005543      10.00000000        0
N       77.83272463      11.01579242      10.00000000        0
C       78.12592177       8.18932084      10.00000000        0
C       78.10466481       6.72329713      10.00000000        0
C       78.03073912       2.32136918      10.00000000        0
N       78.06337080       3.70118243      10.00000000        0
C       77.88474464      19.86830946      10.00000000        0
N       77.96765271      21.51191265      10.00000000        0
C       77.85233906      15.35487108      10.00000000        0
C       77.84211436      16.86158320      10.00000000        0
C       79.22695827       5.95518920      10.00000000        0
N       79.23158038       4.40124813      10.00000000        0
C       79.07896308      17.59950883      10.00000000        0
C       79.08960838      19.11544183      10.00000000        0
C       79.08218636      14.66490261      10.00000000        0
C       79.08132846      13.21712858      10.00000000        0
C       79.18383808      22.22163908      10.00000000        0
C       79.27582760       8.97540767      10.00000000        0
C       79.13221549      10.39373278      10.00000000        0
C       79.19120891       1.44451954      10.00000000        0
C       80.47978560       2.12125598      10.00000000        0
C       80.45511484       3.72447161      10.00000000        0
C       80.35704982      21.41079982      10.00000000        0
C       80.34851392      19.85534875      10.00000000        0
C       80.32170340      16.88095411      10.00000000        0
C       80.31797492      15.42178438      10.00000000        0
C       80.33932902      12.57965879      10.00000000        0
C       80.35880232      11.13017865      10.00000000        0
C       80.47859463       8.24309694      10.00000000        0
C       80.43974481       6.77512662      10.00000000        0
C       81.65802327       9.01646679      10.00000000        0
C       81.58157247      10.42746849      10.00000000        0
C       81.58396253      13.27488460      10.00000000        0
C       81.58431909      14.73099292      10.00000000        0
C       81.55064871      17.61506518      10.00000000        0
C       81.56067976      19.07519471      10.00000000        0
C       81.55088444      22.17136385      10.00000000        0
N       81.56487100       1.26590608      10.00000000        0
C       81.65013709       4.54485255      10.00000000        0
C       81.64836713       6.05141381      10.00000000        0
C       82.75110286      21.23046231      10.00000000        0
C       82.78571892      19.80274819      10.00000000        0
N       82.85626977      16.86366115      10.00000000        0
C       82.83493756      15.42591917      10.00000000        0
C       82.77855254      12.57400314      10.00000000        0
C       82.85969371       8.25591590      10.00000000        0
C       82.87489830       6.80280450      10.00000000        0
C       82.95444177       4.00149487      10.00000000        0
C       84.07317505       4.66871050      10.00000000        0
C       84.18536672       6.10191284      10.00000000        0
C       84.02455679      13.34536005      10.00000000        0
N       83.97089636      14.77169527      10.00000000        0
C       84.09597290       8.99056457      10.00000000        0
C       84.45466636      10.25517935      10.00000000        0
C       83.93294071      18.93785168      10.00000000        0
C       83.96156088      17.63997544      10.00000000        0
C       84.02285391      21.74902514      10.00000000        0
C       84.21697921       0.70064161      10.00000000        0
C       84.16451768       2.02013307      10.00000000        0
C       85.32456837       2.67953235      10.00000000        0
C       85.18496112      11.30369616      10.00000000        0
C       85.21000995      12.56532441      10.00000000        0
C       85.28626504       6.98578444      10.00000000        0
C       85.28860937       8.23165059      10.00000000        0
