120
Lattice="11.547836581764841 0.0 0.0 0.0 10.88740474 0.0 0.0 0.0 27.321754872647265" Properties=species:S:1:pos:R:3:spacegroup_kinds:I:1 spacegroup="P 1" unit_cell=conventional occupancy="_JSON {\"0\": {\"Si\": 1.0}, \"1\": {\"Si\": 1.0}, \"2\": {\"Si\": 1.0}, \"3\": {\"Si\": 1.0}, \"4\": {\"Si\": 1.0}, \"5\": {\"Si\": 1.0}, \"6\": {\"Si\": 1.0}, \"7\": {\"Si\": 1.0}, \"8\": {\"Si\": 1.0}, \"9\": {\"Si\": 1.0}, \"10\": {\"Si\": 1.0}, \"11\": {\"Si\": 1.0}, \"12\": {\"Si\": 1.0}, \"13\": {\"Si\": 1.0}, \"14\": {\"Si\": 1.0}, \"15\": {\"Si\": 1.0}, \"16\": {\"Si\": 1.0}, \"17\": {\"Si\": 1.0}, \"18\": {\"Si\": 1.0}, \"19\": {\"Si\": 1.0}, \"20\": {\"Si\": 1.0}, \"21\": {\"Si\": 1.0}, \"22\": {\"Si\": 1.0}, \"23\": {\"Si\": 1.0}, \"24\": {\"Si\": 1.0}, \"25\": {\"Si\": 1.0}, \"26\": {\"Si\": 1.0}, \"27\": {\"Si\": 1.0}, \"28\": {\"Si\": 1.0}, \"29\": {\"Si\": 1.0}, \"30\": {\"Si\": 1.0}, \"31\": {\"Si\": 1.0}, \"32\": {\"Si\": 1.0}, \"33\": {\"Si\": 1.0}, \"34\": {\"Si\": 1.0}, \"35\": {\"Si\": 1.0}, \"36\": {\"Si\": 1.0}, \"37\": {\"Si\": 1.0}, \"38\": {\"Si\": 1.0}, \"39\": {\"Si\": 1.0}, \"40\": {\"Si\": 1.0}, \"41\": {\"Si\": 1.0}, \"42\": {\"Si\": 1.0}, \"43\": {\"Si\": 1.0}, \"44\": {\"Si\": 1.0}, \"45\": {\"Si\": 1.0}, \"46\": {\"Si\": 1.0}, \"47\": {\"Si\": 1.0}, \"48\": {\"Si\": 1.0}, \"49\": {\"Si\": 1.0}, \"50\": {\"Si\": 1.0}, \"51\": {\"Si\": 1.0}, \"52\": {\"Si\": 1.0}, \"53\": {\"Si\": 1.0}, \"54\": {\"Si\": 1.0}, \"55\": {\"Si\": 1.0}, \"56\": {\"Si\": 1.0}, \"57\": {\"Si\": 1.0}, \"58\": {\"Si\": 1.0}, \"59\": {\"Si\": 1.0}, \"60\": {\"Si\": 1.0}, \"61\": {\"Si\": 1.0}, \"62\": {\"Si\": 1.0}, \"63\": {\"Si\": 1.0}, \"64\": {\"Si\": 1.0}, \"65\": {\"Si\": 1.0}, \"66\": {\"Si\": 1.0}, \"67\": {\"Si\": 1.0}, \"68\": {\"Si\": 1.0}, \"69\": {\"Si\": 1.0}, \"70\": {\"Si\": 1.0}, \"71\": {\"Si\": 1.0}}" pbc="T T F"
Si       1.92463943       4.08277678       0.00000000        0
Si       0.00000000       0.00000000       0.00000000        1
Si       0.00000000       1.36092559       1.92463943        2
Si       1.92463943       2.72185118       1.92463943        3
Si       1.92463943       4.08277678       3.84927886        4
Si       0.00000000       0.00000000       3.84927886        5
Si       0.00006528       1.36106103       5.77584393        6
Si       1.92459998       2.72274646       5.77544694        7
Si       1.92449140       4.08316226       7.70795161        8
Si      -0.00070712       0.00215798       7.70808130        9
Si      -0.00150036       1.36181245       9.63885113       10
Si       1.92460722       2.72170663       9.63787567       11
Si       1.92463943       9.52647915       0.00000000       12
Si       0.00000000       5.44370237       0.00000000       13
Si       0.00000000       6.80462796       1.92463943       14
Si       1.92463943       8.16555355       1.92463943       15
Si       1.92463943       9.52647915       3.84927886       16
Si       0.00000000       5.44370237       3.84927886       17
Si       0.00000000       6.80462796       5.77391829       18
Si       1.92633763       8.16679028       5.77621711       19
Si       1.92479457       9.52704131       7.70663571       20
Si       0.00159854       5.44678078       7.70411709       21
Si       0.00033504       6.80297974       9.63417390       22
Si       1.92486056       8.16649270       9.63684848       23
Si       5.77391829       4.08277678       0.00000000       24
Si       3.84927886       0.00000000       0.00000000       25
Si       3.84927886       1.36092559       1.92463943       26
Si       5.77391829       2.72185118       1.92463943       27
Si       5.77391829       4.08277678       3.84927886       28
Si       3.84927886       0.00000000       3.84927886       29
Si       3.85023232       1.36017625       5.77754085       30
Si       5.77447140       2.72314211       5.77746278       31
Si       5.77225597       4.08232921       7.71320572       32
Si       3.85015760       0.00265908       7.70878344       33
Si       3.84887580       1.36015118       9.64002076       34
Si       5.77391417       2.72155388       9.64252951       35
Si       5.77391829       9.52647915       0.00000000       36
Si       3.84927886       5.44370237       0.00000000       37
Si       3.84927886       6.80462796       1.92463943       38
Si       5.77391829       8.16555355       1.92463943       39
Si       5.77391829       9.52647915       3.84927886       40
Si       3.84927886       5.44370237       3.84927886       41
Si       3.85001888       6.80392372       5.77552896       42
Si       5.77459320       8.16608762       5.77914165       43
Si       5.77316587       9.52759440       7.70753927       44
Si       3.84875314       5.44558516       7.70920380       45
Si       3.84905718       6.80473275       9.63814883       46
Si       5.77230362       8.16667109       9.63738869       47
Si       9.62319715       4.08277678       0.00000000       48
Si       7.69855772       0.00000000       0.00000000       49
Si       7.69855772       1.36092559       1.92463943       50
Si       9.62319715       2.72185118       1.92463943       51
Si       9.62319715       4.08277678       3.84927886       52
Si       7.69855772       0.00000000       3.84927886       53
Si       7.69810207       1.36082503       5.77780113       54
Si       9.62190506       2.72351357       5.77627740       55
Si       9.62142524       4.08624555       7.70797033       56
Si       7.69730695       0.00349977       7.70406709       57
Si       7.69649600       1.36056734       9.63566528       58
Si       9.62086889       2.72302305       9.63999902       59
Si       9.62319715       9.52647915       0.00000000       60
Si       7.69855772       5.44370237       0.00000000       61
Si       7.69855772       6.80462796       1.92463943       62
Si       9.62319715       8.16555355       1.92463943       63
Si       9.62319715       9.52647915       3.84927886       64
Si       7.69855772       5.44370237       3.84927886       65
Si       7.69825830       6.80407725       5.77783279       66
Si       9.62296001       8.16585759       5.77717518       67
Si       9.62299578       9.52729702       7.70742239       68
Si       7.69662447       5.44605308       7.70812868       69
Si       7.69769657       6.80396362       9.63488599       70
Si       9.62243235       8.16614509       9.63480668       71
Si      -0.00157014       5.44326776      11.56596095        0
Si       1.92280545       4.08108176      11.56730428        0
Si       3.84785045       5.44423441      11.56885711        0
Si       9.62118801       4.08047936      11.56893179        0
Si       5.77289355       4.08109914      11.57268243        0
Si       7.69598668       5.44616435      11.56398468        0
Si       7.69567718       0.00180256      11.56417846        0
Si       9.61985938       9.52525599      11.56393542        0
Si      -0.00388948       0.00034478      11.56665408        0
Si       1.92355128       9.52807613      11.56545993        0
Si       3.84923027      -0.00113584      11.56849218        0
Si       5.77217798       9.52546351      11.56682192        0
Si       1.92499367       2.72376616      13.49901445        0
Si      -0.00272717       1.36412731      13.49976038        0
Si       9.62422404       2.72250773      13.50190477        0
Si       7.69700051       1.36516778      13.49946611        0
Si       5.77102285       2.72749512      13.50841336        0
Si       3.84913960       1.36237051      13.50346585        0
Si       7.69618603       6.80490673      13.49391513        0
Si       9.62006078       8.16387883      13.49531262        0
Si       5.77303586       8.16753684      13.49195057        0
Si      -0.00163979       6.80545733      13.49388307        0
Si       1.92037607       8.17014863      13.48801822        0
Si       3.84760678       6.80987329      13.49599429        0
Si      -0.00700511       5.44262342      15.41717737        0
Si       9.62385356       4.08006394      15.41968708        0
Si       1.92464918       4.08452297      15.41983463        0
Si       7.70268783       5.44562668      15.41776538        0
Si       3.84823851       5.42982028      15.39988679        0
Si       5.77088795       4.08979239      15.43063387        0
Si       1.92687743       9.54093872      15.39431480        0
Si      -0.00010967       0.00667560      15.42365695        0
Si       9.62857845       9.53069382      15.41286711        0
Si       7.70029269       0.00138077      15.41749643        0
Si       5.77343330       9.52886414      15.41174249        0
Si       3.85003140       0.00600505      15.42387345        0
Si       1.91683648       2.71781570      17.33743310        0
Si       3.86105875       1.35398531      17.36107832        0
Si      -0.00535792       1.32532926      17.37791619        0
Si       9.62488140       2.73237652      17.35378060        0
Si       7.69927619       1.34453136      17.35131315        0
Si       5.78387788       2.75108832      17.36643383        0
Si       1.91168530       8.10402869      17.23323248        0
Si      -0.01279085       6.77767735      17.34859574        0
Si       9.62962521       8.18785151      17.35292533        0
Si       7.71483000       6.81855178      17.33109401        0
Si       5.77480034       8.17822434      17.32789309        0
Si       3.89655274       6.74439643      17.38116034        0
