721
Lattice="96.0829251508124 0.0 0.0 0.0 22.3 0.0 0.0 0.0 20.0" Properties=species:S:1:pos:R:3:spacegroup_kinds:I:1 spacegroup="P 1" unit_cell=conventional pbc="F T F"
C        0.50000000       0.50000000      10.00000000        0
C        2.95951215       0.50000000      10.00000000        1
C        5.41902429       0.50000000      10.00000000        2
C        7.87853644       0.50000000      10.00000000        3
C       10.33804859       0.50000000      10.00000000        4
C       12.79756073       0.50000000      10.00000000        5
C       15.25707288       0.50000000      10.00000000        6
C       17.71658503       0.50000000      10.00000000        7
C       20.17609718       0.50000000      10.00000000        8
C       22.63560932       0.50000000      10.00000000        9
C       25.52303786       0.68619505      10.00000000       10
C        0.50000000       1.92000000      10.00000000       11
C        2.95951215       1.92000000      10.00000000       12
C        5.41902429       1.92000000      10.00000000       13
C        7.87853644       1.92000000      10.00000000       14
C       10.33804859       1.92000000      10.00000000       15
C       12.79756073       1.92000000      10.00000000       16
C       15.25707288       1.92000000      10.00000000       17
C       17.71658503       1.92000000      10.00000000       18
C       20.17609718       1.92000000      10.00000000       19
C       22.63733491       1.87937189      10.00000000       20
C       25.12037544       2.03242394      10.00000000       21
C        1.72975607       2.63000000      10.00000000       22
C        4.18926822       2.63000000      10.00000000       23
C        6.64878037       2.63000000      10.00000000       24
C        9.10829251       2.63000000      10.00000000       25
C       11.56780466       2.63000000      10.00000000       26
C       14.02731681       2.63000000      10.00000000       27
C       16.48682896       2.63000000      10.00000000       28
C       18.94634110       2.63000000      10.00000000       29
C       21.40585325       2.63000000      10.00000000       30
C       23.84868809       2.66327130      10.00000000       31
C        1.72975607       4.05000000      10.00000000       32
C        4.18926822       4.05000000      10.00000000       33
C        6.64878037       4.05000000      10.00000000       34
C        9.10829251       4.05000000      10.00000000       35
C       11.56780466       4.05000000      10.00000000       36
C       14.02731681       4.05000000      10.00000000       37
C       16.48682896       4.05000000      10.00000000       38
C       18.94634110       4.05000000      10.00000000       39
C       21.40585325       4.05000000      10.00000000       40
C       23.86027536       4.05891839      10.00000000       41
C        0.50000000       4.76000000      10.00000000       42
C        2.95951215       4.76000000      10.00000000       43
C        5.41902429       4.76000000      10.00000000       44
C        7.87853644       4.76000000      10.00000000       45
C       10.33804859       4.76000000      10.00000000       46
C       12.79756073       4.76000000      10.00000000       47
C       15.25707288       4.76000000      10.00000000       48
C       17.71658503       4.76000000      10.00000000       49
C       20.17609718       4.76000000      10.00000000       50
C       22.63640289       4.75991761      10.00000000       51
C       25.10865349       4.77576903      10.00000000       52
C        0.50000000       6.18000000      10.00000000       53
C        2.95951215       6.18000000      10.00000000       54
C        5.41902429       6.18000000      10.00000000       55
C        7.87853644       6.18000000      10.00000000       56
C       10.33804859       6.18000000      10.00000000       57
C       12.79756073       6.18000000      10.00000000       58
C       15.25707288       6.18000000      10.00000000       59
C       17.71658503       6.18000000      10.00000000       60
C       20.17609718       6.18000000      10.00000000       61
C       22.63824136       6.18149172      10.00000000       62
C       25.10461185       6.19186643      10.00000000       63
C        1.72975607       6.89000000      10.00000000       64
C        4.18926822       6.89000000      10.00000000       65
C        6.64878037       6.89000000      10.00000000       66
C        9.10829251       6.89000000      10.00000000       67
C       11.56780466       6.89000000      10.00000000       68
C       14.02731681       6.89000000      10.00000000       69
C       16.48682896       6.89000000      10.00000000       70
C       18.94634110       6.89000000      10.00000000       71
C       21.40585325       6.89000000      10.00000000       72
C       23.87319004       6.89338330      10.00000000       73
C        1.72975607       8.31000000      10.00000000       74
C        4.18926822       8.31000000      10.00000000       75
C        6.64878037       8.31000000      10.00000000       76
C        9.10829251       8.31000000      10.00000000       77
C       11.56780466       8.31000000      10.00000000       78
C       14.02731681       8.31000000      10.00000000       79
C       16.48682896       8.31000000      10.00000000       80
C       18.94634110       8.31000000      10.00000000       81
C       21.40585325       8.31000000      10.00000000       82
C       23.87156397       8.31547615      10.00000000       83
C        0.50000000       9.02000000      10.00000000       84
C        2.95951215       9.02000000      10.00000000       85
C        5.41902429       9.02000000      10.00000000       86
C        7.87853644       9.02000000      10.00000000       87
C       10.33804859       9.02000000      10.00000000       88
C       12.79756073       9.02000000      10.00000000       89
C       15.25707288       9.02000000      10.00000000       90
C       17.71658503       9.02000000      10.00000000       91
C       20.17609718       9.02000000      10.00000000       92
C       22.63728430       9.01711290      10.00000000       93
C       25.10831518       9.01662051      10.00000000       94
C        0.50000000      10.44000000      10.00000000       95
C        2.95951215      10.44000000      10.00000000       96
C        5.41902429      10.44000000      10.00000000       97
C        7.87853644      10.44000000      10.00000000       98
C       10.33804859      10.44000000      10.00000000       99
C       12.79756073      10.44000000      10.00000000      100
C       15.25707288      10.44000000      10.00000000      101
C       17.71658503      10.44000000      10.00000000      102
C       20.17609718      10.44000000      10.00000000      103
C       22.63782261      10.44007225      10.00000000      104
C       25.10212616      10.43584108      10.00000000      105
C        1.72975607      11.15000000      10.00000000      106
C        4.18926822      11.15000000      10.00000000      107
C        6.64878037      11.15000000      10.00000000      108
C        9.10829251      11.15000000      10.00000000      109
C       11.56780466      11.15000000      10.00000000      110
C       14.02731681      11.15000000      10.00000000      111
C       16.48682896      11.15000000      10.00000000      112
C       18.94634110      11.15000000      10.00000000      113
C       21.40585325      11.15000000      10.00000000      114
C       23.87018095      11.15046234      10.00000000      115
C        1.72975607      12.57000000      10.00000000      116
C        4.18926822      12.57000000      10.00000000      117
C        6.64878037      12.57000000      10.00000000      118
C        9.10829251      12.57000000      10.00000000      119
C       11.56780466      12.57000000      10.00000000      120
C       14.02731681      12.57000000      10.00000000      121
C       16.48682896      12.57000000      10.00000000      122
C       18.94634110      12.57000000      10.00000000      123
C       21.40585325      12.57000000      10.00000000      124
C       23.87384421      12.57252062      10.00000000      125
C        0.50000000      13.28000000      10.00000000      126
C        2.95951215      13.28000000      10.00000000      127
C        5.41902429      13.28000000      10.00000000      128
C        7.87853644      13.28000000      10.00000000      129
C       10.33804859      13.28000000      10.00000000      130
C       12.79756073      13.28000000      10.00000000      131
C       15.25707288      13.28000000      10.00000000      132
C       17.71658503      13.28000000      10.00000000      133
C       20.17609718      13.28000000      10.00000000      134
C       22.63592600      13.27634221      10.00000000      135
C       25.10762348      13.27190108      10.00000000      136
C        0.50000000      14.70000000      10.00000000      137
C        2.95951215      14.70000000      10.00000000      138
C        5.41902429      14.70000000      10.00000000      139
C        7.87853644      14.70000000      10.00000000      140
C       10.33804859      14.70000000      10.00000000      141
C       12.79756073      14.70000000      10.00000000      142
C       15.25707288      14.70000000      10.00000000      143
C       17.71658503      14.70000000      10.00000000      144
C       20.17609718      14.70000000      10.00000000      145
C       22.63560932      14.70000000      10.00000000      146
C       25.10763572      14.69285583      10.00000000      147
C        1.72975607      15.41000000      10.00000000      148
C        4.18926822      15.41000000      10.00000000      149
C        6.64878037      15.41000000      10.00000000      150
C        9.10829251      15.41000000      10.00000000      151
C       11.56780466      15.41000000      10.00000000      152
C       14.02731681      15.41000000      10.00000000      153
C       16.48682896      15.41000000      10.00000000      154
C       18.94634110      15.41000000      10.00000000      155
C       21.40585325      15.41000000      10.00000000      156
C       23.87230545      15.40872813      10.00000000      157
C        1.72975607      16.83000000      10.00000000      158
C        4.18926822      16.83000000      10.00000000      159
C        6.64878037      16.83000000      10.00000000      160
C        9.10829251      16.83000000      10.00000000      161
C       11.56780466      16.83000000      10.00000000      162
C       14.02731681      16.83000000      10.00000000      163
C       16.48682896      16.83000000      10.00000000      164
C       18.94634110      16.83000000      10.00000000      165
C       21.40585325      16.83000000      10.00000000      166
C       23.87991313      16.83112395      10.00000000      167
C        0.50000000      17.54000000      10.00000000      168
C        2.95951215      17.54000000      10.00000000      169
C        5.41902429      17.54000000      10.00000000      170
C        7.87853644      17.54000000      10.00000000      171
C       10.33804859      17.54000000      10.00000000      172
C       12.79756073      17.54000000      10.00000000      173
C       15.25707288      17.54000000      10.00000000      174
C       17.71658503      17.54000000      10.00000000      175
C       20.17609718      17.54000000      10.00000000      176
C       22.63857477      17.53940896      10.00000000      177
C       25.13885253      17.53395914      10.00000000      178
C        0.50000000      18.96000000      10.00000000      179
C        2.95951215      18.96000000      10.00000000      180
C        5.41902429      18.96000000      10.00000000      181
C        7.87853644      18.96000000      10.00000000      182
C       10.33804859      18.96000000      10.00000000      183
C       12.79756073      18.96000000      10.00000000      184
C       15.25707288      18.96000000      10.00000000      185
C       17.71658503      18.96000000      10.00000000      186
C       20.17609718      18.96000000      10.00000000      187
C       22.63149812      18.94912802      10.00000000      188
C       25.18057667      18.94274796      10.00000000      189
C        1.72975607      19.67000000      10.00000000      190
C        4.18926822      19.67000000      10.00000000      191
C        6.64878037      19.67000000      10.00000000      192
C        9.10829251      19.67000000      10.00000000      193
C       11.56780466      19.67000000      10.00000000      194
C       14.02731681      19.67000000      10.00000000      195
C       16.48682896      19.67000000      10.00000000      196
C       18.94634110      19.67000000      10.00000000      197
C       21.40585325      19.67000000      10.00000000      198
C       23.91000364      19.58300625      10.00000000      199
C        1.72975607      21.09000000      10.00000000      200
C        4.18926822      21.09000000      10.00000000      201
C        6.64878037      21.09000000      10.00000000      202
C        9.10829251      21.09000000      10.00000000      203
C       11.56780466      21.09000000      10.00000000      204
C       14.02731681      21.09000000      10.00000000      205
C       16.48682896      21.09000000      10.00000000      206
C       18.94634110      21.09000000      10.00000000      207
C       21.40585325      21.09000000      10.00000000      208
C       23.93645876      20.94059733      10.00000000      209
C        0.50000000      21.80000000      10.00000000      210
C        2.95951215      21.80000000      10.00000000      211
C        5.41902429      21.80000000      10.00000000      212
C        7.87853644      21.80000000      10.00000000      213
C       10.33804859      21.80000000      10.00000000      214
C       12.79756073      21.80000000      10.00000000      215
C       15.25707288      21.80000000      10.00000000      216
C       17.71658503      21.80000000      10.00000000      217
C       20.17609718      21.80000000      10.00000000      218
C       22.67987797      21.59570602      10.00000000      219
C       25.12277957      21.65635212      10.00000000      220
C       26.34886490      15.38866017      10.00000000        0
C       26.35763229      16.80951168      10.00000000        0
C       26.33929436      12.56499320      10.00000000        0
C       26.33968921      11.14168935      10.00000000        0
C       26.34152681       8.31610687      10.00000000        0
C       26.34883764       6.89289327      10.00000000        0
C       26.35928505       4.10714728      10.00000000        0
C       26.33454522       2.75619263      10.00000000        0
C       26.40551812      19.61550577      10.00000000        0
C       26.36405438      20.95199363      10.00000000        0
C       27.59667852       6.19535695      10.00000000        0
C       27.61217554       4.78071298      10.00000000        0
C       27.57513589       9.02459322      10.00000000        0
C       27.57626657      10.44261615      10.00000000        0
C       27.52378370       1.98611637      10.00000000        0
C       27.01886314       0.68034590      10.00000000        0
C       27.57385794      13.27122112      10.00000000        0
C       27.58408039      14.68787115      10.00000000        0
C       27.61024702      17.51658132      10.00000000        0
C       27.65578632      18.93380116      10.00000000        0
C       28.82171225      15.39694652      10.00000000        0
C       28.83957563      16.82347544      10.00000000        0
C       28.81099175      12.56625655      10.00000000        0
C       28.80911051      11.14353102      10.00000000        0
C       28.81706163       8.31760602      10.00000000        0
C       28.82448221       6.89109355      10.00000000        0
C       28.84468745       4.00178756      10.00000000        0
C       28.83659291       2.47936781      10.00000000        0
C       28.87878885      19.70805825      10.00000000        0
C       28.88373794      21.21501745      10.00000000        0
C       27.56244544      21.70068577      10.00000000        0
C       30.09609330      19.03668278      10.00000000        0
C       30.08233641      17.57051660      10.00000000        0
C       30.05294645      14.69672746      10.00000000        0
C       30.04899196      13.27149003      10.00000000        0
C       30.04369951      10.43383317      10.00000000        0
C       30.04867983       9.00550846      10.00000000        0
C       30.06135024       6.14420538      10.00000000        0
C       30.05823131       4.68340150      10.00000000        0
C       30.02630639      22.16248525      10.00000000        0
C       29.99720090       1.54002614      10.00000000        0
C       31.22542304       2.25342235      10.00000000        0
C       31.24540492       3.84011487      10.00000000        0
C       31.26998969      21.48510497      10.00000000        0
C       31.27153536      19.90086163      10.00000000        0
C       31.28291415       6.83017833      10.00000000        0
C       31.28631523       8.27660928      10.00000000        0
C       31.27247181      11.14693518      10.00000000        0
C       31.28033105      12.57401905      10.00000000        0
C       31.28501983      15.43492741      10.00000000        0
C       31.29737954      16.88407873      10.00000000        0
C       32.46461063       4.54869980      10.00000000        0
C       32.48910692       6.03945664      10.00000000        0
C       32.50929808       8.98194814      10.00000000        0
C       32.50327323      10.42640687      10.00000000        0
C       32.51212870      13.28732926      10.00000000        0
C       32.50616024      14.72735544      10.00000000        0
C       32.50159702      17.66302399      10.00000000        0
C       32.47251760      19.15730398      10.00000000        0
C       32.50132037      22.23512758      10.00000000        0
C       32.48859897       1.52020372      10.00000000        0
C       33.72722108       2.23007484      10.00000000        0
C       33.69968789       3.77901470      10.00000000        0
C       33.70386859      21.47807121      10.00000000        0
C       33.70551139      19.92019346      10.00000000        0
C       33.71846457      16.94380929      10.00000000        0
C       33.72902253      15.48076516      10.00000000        0
C       33.73377512      12.58009924      10.00000000        0
C       33.73204907      11.13475702      10.00000000        0
C       33.71151581       6.76442699      10.00000000        0
C       33.72541717       8.23347139      10.00000000        0
C       34.94817547       8.95714923      10.00000000        0
C       34.95339294      10.41352090      10.00000000        0
C       34.95710463      13.30666349      10.00000000        0
C       34.94787079      14.76195851      10.00000000        0
C       34.92916200       6.03161943      10.00000000        0
C       34.90784249       4.53902710      10.00000000        0
C       34.95436107      17.68721794      10.00000000        0
C       34.95545882      19.23751475      10.00000000        0
C       34.93848222      22.26312231      10.00000000        0
C       34.94464764       1.47794030      10.00000000        0
C       36.19677262      21.54609368      10.00000000        0
C       36.17544974      20.00448543      10.00000000        0
C       36.15714390       2.25568521      10.00000000        0
C       36.13927895       3.79978761      10.00000000        0
C       36.16703465      16.96461948      10.00000000        0
C       36.17421758      15.49044378      10.00000000        0
C       36.18130008      12.59095498      10.00000000        0
C       36.17558573      11.14038998      10.00000000        0
C       36.17374175       8.23536977      10.00000000        0
C       36.15379920       6.77007361      10.00000000        0
C       37.39699339      14.76268723      10.00000000        0
C       37.40896533      13.30989033      10.00000000        0
C       37.39960123      10.41773670      10.00000000        0
C       37.39841772       8.95537446      10.00000000        0
C       37.38538908      17.71432397      10.00000000        0
C       37.36700244      19.20759977      10.00000000        0
C       37.38244483       6.02767357      10.00000000        0
C       37.36472361       4.53391812      10.00000000        0
C       37.41261131       1.53475329      10.00000000        0
C       37.42138861      -0.02629243      10.00000000        0
C       38.60419882      16.97679814      10.00000000        0
C       38.61243333      15.50831540      10.00000000        0
C       38.63255977      12.59296282      10.00000000        0
C       38.63072105      11.13904322      10.00000000        0
C       38.61544867       8.21852011      10.00000000        0
C       38.60726421       6.75285708      10.00000000        0
C       38.60416030       3.77651775      10.00000000        0
C       38.65301327       2.23752794      10.00000000        0
C       38.60467501      19.94785922      10.00000000        0
C       38.62297289      21.49743950      10.00000000        0
C       39.84148454       8.95423808      10.00000000        0
C       39.84954975      10.41366442      10.00000000        0
C       39.82957457       6.02725688      10.00000000        0
C       39.81595880       4.53920290      10.00000000        0
C       39.85459970      13.31468526      10.00000000        0
C       39.83661946      14.77022619      10.00000000        0
C       39.84805748      17.70459236      10.00000000        0
C       39.85863317      19.25309199      10.00000000        0
C       39.85703371      22.27058524      10.00000000        0
C       39.86794975       1.48576264      10.00000000        0
C       41.11965522      21.55135358      10.00000000        0
C       41.08009528      20.01371390      10.00000000        0
C       41.08108791       2.26076069      10.00000000        0
C       41.06030563       3.81115444      10.00000000        0
C       41.05044693       6.77628366      10.00000000        0
C       41.06661836       8.23763259      10.00000000        0
C       41.06118464      16.97218721      10.00000000        0
C       41.06530157      15.49566011      10.00000000        0
C       41.08181865      12.59464915      10.00000000        0
C       41.07592032      11.14088647      10.00000000        0
C       42.30003924      10.41202070      10.00000000        0
C       42.30016555       8.95674421      10.00000000        0
C       42.30817611      13.31200552      10.00000000        0
C       42.29324674      14.76776485      10.00000000        0
C       42.28498355      17.71636924      10.00000000        0
C       42.27387429      19.20926337      10.00000000        0
C       42.27853763       6.02413492      10.00000000        0
C       42.27850635       4.53733250      10.00000000        0
C       42.33310507       1.53390838      10.00000000        0
C       42.34576476      -0.02914327      10.00000000        0
C       43.50585037      16.97709805      10.00000000        0
C       43.51088093      15.50889295      10.00000000        0
C       43.53479118      12.59200142      10.00000000        0
C       43.53003023      11.13539679      10.00000000        0
C       43.52179771       8.22403934      10.00000000        0
C       43.51078794       6.75645696      10.00000000        0
C       43.52019135       3.77963705      10.00000000        0
C       43.56044035       2.24517258      10.00000000        0
C       43.51603882      19.94367389      10.00000000        0
C       43.56513867      21.49875181      10.00000000        0
C       44.73741310       4.51987535      10.00000000        0
C       44.73966661       6.00809319      10.00000000        0
C       44.75368859       8.95482045      10.00000000        0
C       44.75530069      10.41699793      10.00000000        0
C       44.75780075      13.31740022      10.00000000        0
C       44.74176949      14.77735884      10.00000000        0
C       44.74118380      17.69965023      10.00000000        0
C       44.72866633      19.18650444      10.00000000        0
C       44.79400659      22.22636524      10.00000000        0
C       44.80462761       1.50082361      10.00000000        0
C       46.00030040      21.47332515      10.00000000        0
C       45.97264024      19.93311167      10.00000000        0
C       46.02907365       2.21996633      10.00000000        0
C       45.97307397       3.76079431      10.00000000        0
C       45.96593926      16.96733184      10.00000000        0
C       45.96605365      15.50499057      10.00000000        0
C       45.98721631      12.59643653      10.00000000        0
C       45.98467887      11.13890867      10.00000000        0
C       45.97557036       8.22131776      10.00000000        0
C       45.96746970       6.74892437      10.00000000        0
C       47.21194942      13.31528010      10.00000000        0
C       47.19691753      14.77130653      10.00000000        0
C       47.20878517      10.41630075      10.00000000        0
C       47.20346832       8.95510278      10.00000000        0
C       47.19089864       6.02510446      10.00000000        0
C       47.18220220       4.53262025      10.00000000        0
C       47.21127759      17.69615163      10.00000000        0
C       47.22469409      19.23968258      10.00000000        0
C       47.23514262      22.26012295      10.00000000        0
C       47.24650591       1.47401495      10.00000000        0
C       48.49443374      21.54278643      10.00000000        0
C       48.44933018      20.00392373      10.00000000        0
C       48.45557608       2.25350269      10.00000000        0
C       48.42068487       3.80256781      10.00000000        0
C       48.42632508      16.96728858      10.00000000        0
C       48.42709110      15.49353599      10.00000000        0
C       48.44174351      12.59486513      10.00000000        0
C       48.43539716      11.14347446      10.00000000        0
C       48.43413755       8.23817824      10.00000000        0
C       48.41958165       6.77053737      10.00000000        0
C       49.67113207      13.31146710      10.00000000        0
C       49.65744187      14.76568186      10.00000000        0
C       49.66450351      10.41819214      10.00000000        0
C       49.66616055       8.96085199      10.00000000        0
C       49.64817591       6.02235200      10.00000000        0
C       49.64420841       4.54070760      10.00000000        0
C       49.65353466      17.71049079      10.00000000        0
C       49.64395261      19.20225011      10.00000000        0
C       49.70938004       1.53275296      10.00000000        0
C       49.72110995      -0.03468998      10.00000000        0
C       50.87669645      16.97205151      10.00000000        0
C       50.88668599      15.50334138      10.00000000        0
C       50.89498639      12.59239255      10.00000000        0
C       50.89554504      11.13829109      10.00000000        0
C       50.89022703       8.22785289      10.00000000        0
C       50.88096961       6.75908259      10.00000000        0
C       50.88880958       3.78354036      10.00000000        0
C       50.94479270       2.24321797      10.00000000        0
C       50.88880656      19.93813074      10.00000000        0
C       50.91550173      21.49140472      10.00000000        0
C       52.11865925       8.96005661      10.00000000        0
C       52.12207620      10.41923881      10.00000000        0
C       52.10689981       6.03771388      10.00000000        0
C       52.09838313       4.54809980      10.00000000        0
C       52.12266010      13.31649925      10.00000000        0
C       52.11190887      14.77530799      10.00000000        0
C       52.12464864      17.69825509      10.00000000        0
C       52.14085940      19.24451355      10.00000000        0
C       52.14841405      22.27174473      10.00000000        0
C       52.15854518       1.48760176      10.00000000        0
C       53.40910530      21.55042681      10.00000000        0
C       53.36513738      20.00958121      10.00000000        0
C       53.36936010       2.26306861      10.00000000        0
C       53.33572456       3.81168255      10.00000000        0
C       53.34127608      16.97028808      10.00000000        0
C       53.34431760      15.49659340      10.00000000        0
C       53.35288138      12.59779985      10.00000000        0
C       53.34845031      11.14697889      10.00000000        0
C       53.35056815       8.24491810      10.00000000        0
C       53.33696522       6.77848326      10.00000000        0
C       54.57798760      14.77258779      10.00000000        0
C       54.58198126      13.31304757      10.00000000        0
C       54.58209133      10.42274852      10.00000000        0
C       54.57868645       8.96572447      10.00000000        0
C       54.56634713      17.73430403      10.00000000        0
C       54.56889590      19.22940356      10.00000000        0
C       54.56757176       6.04857320      10.00000000        0
C       54.55117647       4.56754376      10.00000000        0
C       54.61223358       1.53114360      10.00000000        0
C       54.64612000      -0.04172695      10.00000000        0
C       55.79185454      16.98857768      10.00000000        0
C       55.79805223      15.51245259      10.00000000        0
C       55.81277532      12.58651038      10.00000000        0
C       55.81256722      11.13550728      10.00000000        0
C       55.80282809       8.23310985      10.00000000        0
C       55.79792380       6.77340079      10.00000000        0
C       55.79770254       3.81801306      10.00000000        0
C       55.83119091       2.27411223      10.00000000        0
C       55.80949455      19.97323399      10.00000000        0
C       55.87102359      21.51809312      10.00000000        0
C       57.03341704       8.96406506      10.00000000        0
C       57.04367672      10.41727683      10.00000000        0
C       57.02961238       6.04629765      10.00000000        0
C       57.01202077       4.56759328      10.00000000        0
C       57.03603685      13.31573797      10.00000000        0
C       57.03168691      14.77883415      10.00000000        0
C       57.02459932      17.72871800      10.00000000        0
C       57.02499656      19.21921126      10.00000000        0
C       57.10289720      22.24636566      10.00000000        0
C       57.06979604       1.52486999      10.00000000        0
C       58.28740858       2.26665828      10.00000000        0
C       58.25786803       3.81448549      10.00000000        0
C       58.32872971      21.51523689      10.00000000        0
C       58.26535659      19.97211014      10.00000000        0
C       58.25653489       6.77434875      10.00000000        0
C       58.25934271       8.23393694      10.00000000        0
C       58.27182339      11.13584888      10.00000000        0
C       58.26804054      12.58876071      10.00000000        0
C       58.25538797      15.51021776      10.00000000        0
C       58.25184864      16.98250650      10.00000000        0
C       59.49583115      13.31521396      10.00000000        0
C       59.48562998      14.77650204      10.00000000        0
C       59.49973807      10.41975558      10.00000000        0
C       59.49559076       8.96187154      10.00000000        0
C       59.48299348      17.70641823      10.00000000        0
C       59.47062770      19.19445966      10.00000000        0
C       59.48640195       6.02566780      10.00000000        0
C       59.47879162       4.54515770      10.00000000        0
C       59.55264604      22.25520284      10.00000000        0
C       59.53783151       1.53026965      10.00000000        0
C       60.77437218       2.23920980      10.00000000        0
C       60.72304069       3.78355980      10.00000000        0
C       60.74558706      21.49316226      10.00000000        0
C       60.71849129      19.93721592      10.00000000        0
C       60.71567202       6.76287597      10.00000000        0
C       60.72108961       8.23145198      10.00000000        0
C       60.72936706      11.14192201      10.00000000        0
C       60.72278883      12.59710932      10.00000000        0
C       60.71829759      15.50364239      10.00000000        0
C       60.71028507      16.96864990      10.00000000        0
C       61.95339929      13.31767014      10.00000000        0
C       61.94498732      14.77493219      10.00000000        0
C       61.95574897      10.42229895      10.00000000        0
C       61.95096727       8.96310701      10.00000000        0
C       61.94120879       6.03966175      10.00000000        0
C       61.93115243       4.54893810      10.00000000        0
C       61.95512974      17.69719515      10.00000000        0
C       61.96892447      19.24348450      10.00000000        0
C       61.98203167      22.27248450      10.00000000        0
C       61.99043604       1.48510745      10.00000000        0
C       63.24143293      21.54983321      10.00000000        0
C       63.19547334      20.00945103      10.00000000        0
C       63.20162875       2.26354993      10.00000000        0
C       63.16949053       3.81351977      10.00000000        0
C       63.17546505      16.96946634      10.00000000        0
C       63.18519825      15.49406845      10.00000000        0
C       63.18156979      12.59785826      10.00000000        0
C       63.18658912      11.14329916      10.00000000        0
C       63.17614248       8.24478017      10.00000000        0
C       63.17076662       6.78063624      10.00000000        0
C       64.41090272      14.77477350      10.00000000        0
C       64.41610603      13.31638042      10.00000000        0
C       64.41591628      10.42615729      10.00000000        0
C       64.41400622       8.96866037      10.00000000        0
C       64.40149361      17.71557532      10.00000000        0
C       64.39080617      19.20782953      10.00000000        0
C       64.39916573       6.03021616      10.00000000        0
C       64.39424476       4.54962165      10.00000000        0
C       64.45648094       1.54115963      10.00000000        0
C       64.46867123      -0.02846008      10.00000000        0
C       65.62739013      16.97825370      10.00000000        0
C       65.64063377      15.51069508      10.00000000        0
C       65.64177147      12.59817473      10.00000000        0
C       65.64764104      11.14450979      10.00000000        0
C       65.63854635       8.23534185      10.00000000        0
C       65.63132826       6.76655427      10.00000000        0
C       65.63888918       3.79086139      10.00000000        0
C       65.69429973       2.24902437      10.00000000        0
C       65.63792247      19.94275512      10.00000000        0
C       65.66240481      21.49755004      10.00000000        0
C       66.86445145      14.77951879      10.00000000        0
C       66.87222350      13.32082870      10.00000000        0
C       66.87400574      10.42438969      10.00000000        0
C       66.86912264       8.96545696      10.00000000        0
C       66.85803021       6.04414120      10.00000000        0
C       66.84883668       4.55445750      10.00000000        0
C       66.87582764      17.70326679      10.00000000        0
C       66.89097233      19.24948719      10.00000000        0
C       66.89658557      22.27602993      10.00000000        0
C       66.90765415       1.49137608      10.00000000        0
C       68.15911902      21.55406720      10.00000000        0
C       68.11592964      20.01367019      10.00000000        0
C       68.11947376       2.26709900      10.00000000        0
C       68.08627042       3.81623446      10.00000000        0
C       68.09280105      16.97374729      10.00000000        0
C       68.09691793      15.49991551      10.00000000        0
C       68.10349315      12.60179578      10.00000000        0
C       68.10065122      11.15116013      10.00000000        0
C       68.10156160       8.24977541      10.00000000        0
C       68.08902201       6.78315261      10.00000000        0
C       69.32633130      14.77032311      10.00000000        0
C       69.33678346      13.31658020      10.00000000        0
C       69.33222213      10.42645137      10.00000000        0
C       69.33447922       8.97030875      10.00000000        0
C       69.32059015      17.71627997      10.00000000        0
C       69.31084680      19.20916860      10.00000000        0
C       69.31749183       6.03173073      10.00000000        0
C       69.31199899       4.55075497      10.00000000        0
C       69.37451413       1.54350522      10.00000000        0
C       69.38617886      -0.02545723      10.00000000        0
C       70.54302796      16.97646017      10.00000000        0
C       70.54874253      15.50927881      10.00000000        0
C       70.56683467      12.60154653      10.00000000        0
C       70.56513923      11.15088753      10.00000000        0
C       70.55759869       8.23410632      10.00000000        0
C       70.54998132       6.76645771      10.00000000        0
C       70.55722787       3.79240008      10.00000000        0
C       70.61309252       2.24924435      10.00000000        0
C       70.55694217      19.94213341      10.00000000        0
C       70.58015164      21.49831177      10.00000000        0
C       71.78738572       8.96476628      10.00000000        0
C       71.79024132      10.42430578      10.00000000        0
C       71.77701792       6.04361888      10.00000000        0
C       71.76771230       4.55426965      10.00000000        0
C       71.79431333      13.32027082      10.00000000        0
C       71.77852004      14.77385390      10.00000000        0
C       71.79311430      17.69960835      10.00000000        0
C       71.80919656      19.24657527      10.00000000        0
C       71.81449671      22.27485648      10.00000000        0
C       71.82638231       1.49128561      10.00000000        0
C       73.07717862      21.55248643      10.00000000        0
C       73.03365348      20.01163542      10.00000000        0
C       73.03828266       2.26648616      10.00000000        0
C       73.00506204       3.81571363      10.00000000        0
C       73.00934109      16.96987446      10.00000000        0
C       73.01190398      15.49573747      10.00000000        0
C       73.02536647      12.59968782      10.00000000        0
C       73.01850707      11.14943209      10.00000000        0
C       73.02012939       8.24930258      10.00000000        0
C       73.00760451       6.78284915      10.00000000        0
C       74.25066803      10.42514754      10.00000000        0
C       74.25199150       8.96173766      10.00000000        0
C       74.25672264      13.31547736      10.00000000        0
C       74.24335387      14.77006391      10.00000000        0
C       74.24171313       6.03926106      10.00000000        0
C       74.23066290       4.55035857      10.00000000        0
C       74.23732586      17.71390944      10.00000000        0
C       74.22836943      19.20715557      10.00000000        0
C       74.29304274       1.54256726      10.00000000        0
C       74.30416559      -0.02701412      10.00000000        0
C       75.46067061      16.97501612      10.00000000        0
C       75.46659999      15.50767153      10.00000000        0
C       75.48477101      12.59967391      10.00000000        0
C       75.47780842      11.14851817      10.00000000        0
C       75.48703748       8.23415451      10.00000000        0
C       75.47319987       6.76575569      10.00000000        0
C       75.47381465       3.78948105      10.00000000        0
C       75.53066673       2.24883426      10.00000000        0
C       75.47514018      19.94062094      10.00000000        0
C       75.49772473      21.49715356      10.00000000        0
C       76.71035929       8.96403904      10.00000000        0
C       76.70745181      10.42149428      10.00000000        0
C       76.69772462       6.03887593      10.00000000        0
C       76.68600687       4.55070352      10.00000000        0
C       76.71208356      13.31789932      10.00000000        0
C       76.69624023      14.77127480      10.00000000        0
C       76.71092562      17.69802661      10.00000000        0
C       76.72720569      19.24509992      10.00000000        0
C       76.73265131      22.27421081      10.00000000        0
C       76.74439223       1.48985459      10.00000000        0
C       77.99526408      21.55178919      10.00000000        0
C       77.95141572      20.01120874      10.00000000        0
C       77.95692944       2.26517950      10.00000000        0
C       77.92427584       3.81437959      10.00000000        0
C       77.92908787      16.96742981      10.00000000        0
C       77.93796190      15.49093226      10.00000000        0
C       77.93961965      12.59656250      10.00000000        0
C       77.93945276      11.14238280      10.00000000        0
C       77.92710616       6.78073563      10.00000000        0
C       77.93552273       8.24389728      10.00000000        0
C       79.17168376       8.96827336      10.00000000        0
C       79.17045195      10.42552882      10.00000000        0
C       79.17291191      13.31522946      10.00000000        0
C       79.16504744      14.77369573      10.00000000        0
C       79.15515566      17.71474702      10.00000000        0
C       79.14624458      19.20761742      10.00000000        0
C       79.15561721       6.03037455      10.00000000        0
C       79.14981513       4.55016378      10.00000000        0
C       79.21172110       1.54195594      10.00000000        0
C       79.22248714      -0.02763531      10.00000000        0
C       80.37987256      16.97805297      10.00000000        0
C       80.38677058      15.51200166      10.00000000        0
C       80.40481931      12.59847852      10.00000000        0
C       80.40374460      11.14367250      10.00000000        0
C       80.39600502       8.23466174      10.00000000        0
C       80.38808291       6.76639897      10.00000000        0
C       80.39474643       3.79171099      10.00000000        0
C       80.45047204       2.24830315      10.00000000        0
C       80.39301201      19.94092641      10.00000000        0
C       80.41638282      21.49711745      10.00000000        0
C       81.61667289      14.77742633      10.00000000        0
C       81.63067928      13.32033208      10.00000000        0
C       81.63037529      10.42343452      10.00000000        0
C       81.62671092       8.96449979      10.00000000        0
C       81.61470721       6.04357273      10.00000000        0
C       81.60513214       4.55407838      10.00000000        0
C       81.63022056      17.70110336      10.00000000        0
C       81.64609898      19.24727017      10.00000000        0
C       81.65122244      22.27439270      10.00000000        0
C       81.66351254       1.49032186      10.00000000        0
C       82.91422072      21.55255087      10.00000000        0
C       82.87080611      20.01225812      10.00000000        0
C       82.84639597       2.34045726      10.00000000        0
C       82.84253589       3.81532206      10.00000000        0
C       82.84664987      16.97155221      10.00000000        0
C       82.84942949      15.49753321      10.00000000        0
C       82.86223350      12.60167945      10.00000000        0
C       82.85782405      11.15050768      10.00000000        0
C       82.85907670       8.24892387      10.00000000        0
C       82.84661940       6.78357857      10.00000000        0
C       84.08794266      13.31060684      10.00000000        0
C       84.08531902      14.75696090      10.00000000        0
C       84.08960695      10.41697712      10.00000000        0
C       84.09237183       8.97625905      10.00000000        0
C       84.07098452       6.06793554      10.00000000        0
C       84.06629681       4.60324933      10.00000000        0
C       84.06778595      17.69970943      10.00000000        0
C       84.07202980      19.18844705      10.00000000        0
C       84.14132836       1.54057534      10.00000000        0
C       84.13609258      -0.03129641      10.00000000        0
C       85.31226750      16.92574046      10.00000000        0
C       85.32856447      15.47415135      10.00000000        0
C       85.34704956      12.58616983      10.00000000        0
C       85.33886729      11.14243162      10.00000000        0
C       85.33779414       8.26146027      10.00000000        0
C       85.33028318       6.81447750      10.00000000        0
C       85.33773107       3.88472693      10.00000000        0
C       85.15553315       2.46994328      10.00000000        0
C       85.34169423      19.83422417      10.00000000        0
C       85.30158590      21.33897505      10.00000000        0
C       86.48064691       9.08146610      10.00000000        0
C       86.50208127      10.35165074      10.00000000        0
C       86.49987184      13.38890104      10.00000000        0
C       86.49067980      14.66250627      10.00000000        0
C       86.49855159       6.04534395      10.00000000        0
C       86.50968327       4.77260130      10.00000000        0
C       86.48977850      17.67972470      10.00000000        0
C       86.46736241      18.97823259      10.00000000        0
C       86.59097295      21.80597000      10.00000000        0
