109
Lattice="11.547836581764841 0.0 0.0 0.0 10.88740474 0.0 0.0 0.0 27.321754872647265" Properties=species:S:1:pos:R:3:spacegroup_kinds:I:1 spacegroup="P 1" unit_cell=conventional occupancy="_JSON {\"0\": {\"Si\": 1.0}, \"1\": {\"Si\": 1.0}, \"2\": {\"Si\": 1.0}, \"3\": {\"Si\": 1.0}, \"4\": {\"Si\": 1.0}, \"5\": {\"Si\": 1.0}, \"6\": {\"Si\": 1.0}, \"7\": {\"Si\": 1.0}, \"8\": {\"Si\": 1.0}, \"9\": {\"Si\": 1.0}, \"10\": {\"Si\": 1.0}, \"11\": {\"Si\": 1.0}, \"12\": {\"Si\": 1.0}, \"13\": {\"Si\": 1.0}, \"14\": {\"Si\": 1.0}, \"15\": {\"Si\": 1.0}, \"16\": {\"Si\": 1.0}, \"17\": {\"Si\": 1.0}, \"18\": {\"Si\": 1.0}, \"19\": {\"Si\": 1.0}, \"20\": {\"Si\": 1.0}, \"21\": {\"Si\": 1.0}, \"22\": {\"Si\": 1.0}, \"23\": {\"Si\": 1.0}, \"24\": {\"Si\": 1.0}, \"25\": {\"Si\": 1.0}, \"26\": {\"Si\": 1.0}, \"27\": {\"Si\": 1.0}, \"28\": {\"Si\": 1.0}, \"29\": {\"Si\": 1.0}, \"30\": {\"Si\": 1.0}, \"31\": {\"Si\": 1.0}, \"32\": {\"Si\": 1.0}, \"33\": {\"Si\": 1.0}, \"34\": {\"Si\": 1.0}, \"35\": {\"Si\": 1.0}, \"36\": {\"Si\": 1.0}, \"37\": {\"Si\": 1.0}, \"38\": {\"Si\": 1.0}, \"39\": {\"Si\": 1.0}, \"40\": {\"Si\": 1.0}, \"41\": {\"Si\": 1.0}, \"42\": {\"Si\": 1.0}, \"43\": {\"Si\": 1.0}, \"44\": {\"Si\": 1.0}, \"45\": {\"Si\": 1.0}, \"46\": {\"Si\": 1.0}, \"47\": {\"Si\": 1.0}, \"48\": {\"Si\": 1.0}, \"49\": {\"Si\": 1.0}, \"50\": {\"Si\": 1.0}, \"51\": {\"Si\": 1.0}, \"52\": {\"Si\": 1.0}, \"53\": {\"Si\": 1.0}, \"54\": {\"Si\": 1.0}, \"55\": {\"Si\": 1.0}, \"56\": {\"Si\": 1.0}, \"57\": {\"Si\": 1.0}, \"58\": {\"Si\": 1.0}, \"59\": {\"Si\": 1.0}, \"60\": {\"Si\": 1.0}, \"61\": {\"Si\": 1.0}, \"62\": {\"Si\": 1.0}, \"63\": {\"Si\": 1.0}, \"64\": {\"Si\": 1.0}, \"65\": {\"Si\": 1.0}, \"66\": {\"Si\": 1.0}, \"67\": {\"Si\": 1.0}, \"68\": {\"Si\": 1.0}, \"69\": {\"Si\": 1.0}, \"70\": {\"Si\": 1.0}, \"71\": {\"Si\": 1.0}}" pbc="T T F"
Si       1.92463943       4.08277678       0.00000000        0
Si       0.00000000       0.00000000       0.00000000        1
Si       0.00000000       1.36092559       1.92463943        2
Si       1.92463943       2.72185118       1.92463943        3
Si       1.92463943       4.08277678       3.84927886        4
Si       0.00000000       0.00000000       3.84927886        5
Si      -0.00229616       1.35918987       5.78005898        6
Si       1.92223575       2.71181038       5.78465070        7
Si       1.92765358       4.09209101       7.68441306        8
Si       0.01516297       0.06258079       7.75339736        9
Si       0.13795801       1.44830919       9.66489331       10
Si       2.06062698       2.87403840       9.72376180       11
Si       1.92463943       9.52647915       0.00000000       12
Si       0.00000000       5.44370237       0.00000000       13
Si       0.00000000       6.80462796       1.92463943       14
Si       1.92463943       8.16555355       1.92463943       15
Si       1.92463943       9.52647915       3.84927886       16
Si       0.00000000       5.44370237       3.84927886       17
Si       0.00000000       6.80462796       5.77391829       18
Si       1.91956693       8.15723556       5.77099673       19
Si       1.90669615       9.53682506       7.71522974       20
Si      -0.01924656       5.50545744       7.71344627       21
Si      -0.16286191       6.93447278       9.63184802       22
Si       1.85377456       8.14627443       9.60687747       23
Si       5.77391829       4.08277678       0.00000000       24
Si       3.84927886       0.00000000       0.00000000       25
Si       3.84927886       1.36092559       1.92463943       26
Si       5.77391829       2.72185118       1.92463943       27
Si       5.77391829       4.08277678       3.84927886       28
Si       3.84927886       0.00000000       3.84927886       29
Si       3.84715717       1.37110941       5.76714579       30
Si       5.77291095       2.71751750       5.78782436       31
Si       5.82691359       4.02340421       7.78232196       32
Si       3.83157398       0.00461581       7.69246970       33
Si       3.88952272       1.33649209       9.62041869       34
Si       5.90770399       2.56659180       9.70950584       35
Si       5.77391829       9.52647915       0.00000000       36
Si       3.84927886       5.44370237       0.00000000       37
Si       3.84927886       6.80462796       1.92463943       38
Si       5.77391829       8.16555355       1.92463943       39
Si       5.77391829       9.52647915       3.84927886       40
Si       3.84927886       5.44370237       3.84927886       41
Si       3.84927886       6.80462796       5.77391829       42
Si       5.77339391       8.16165348       5.78105393       43
Si       5.72521189       9.45657847       7.76628510       44
Si       3.88293697       5.42205699       7.73814433       45
Si       3.68679904       6.62632978       9.86383785       46
Si       5.65965009       8.09326503       9.71070290       47
Si       9.62319715       4.08277678       0.00000000       48
Si       7.69855772       0.00000000       0.00000000       49
Si       7.69855772       1.36092559       1.92463943       50
Si       9.62319715       2.72185118       1.92463943       51
Si       9.62319715       4.08277678       3.84927886       52
Si       7.69855772       0.00000000       3.84927886       53
Si       7.69855772       1.36092559       5.77391829       54
Si       9.62850027       2.71929905       5.79750102       55
Si       9.63150795       4.08704459       7.74301080       56
Si       7.67967821      -0.00758700       7.72468027       57
Si       7.81392551       1.27916407       9.86399214       58
Si       9.70208098       2.72179592       9.65560765       59
Si       9.62319715       9.52647915       0.00000000       60
Si       7.69855772       5.44370237       0.00000000       61
Si       7.69855772       6.80462796       1.92463943       62
Si       9.62319715       8.16555355       1.92463943       63
Si       9.62319715       9.52647915       3.84927886       64
Si       7.69855772       5.44370237       3.84927886       65
Si       7.70433470       6.81396222       5.79621958       66
Si       9.62879996       8.17050944       5.76326215       67
Si       9.62493502       9.54642013       7.70817978       68
Si       7.70561078       5.45315264       7.69325961       69
Si       7.61917228       6.77132147       9.65769937       70
Si       9.43876008       8.34464550       9.71347207       71
Si       0.12268248       5.53841501      11.48406719        0
Si       2.41307627       4.75670536      11.33030465        0
Si       9.75282644       4.10314258      11.56194683        0
Si       7.70339244       5.37295469      11.57379555        0
Si       5.78445452       3.96710501      11.65541391        0
Si       9.38476869       9.78815430      11.65617350        0
Si      -0.08993253       0.02674120      11.56398620        0
Si       1.83548936       9.49072269      11.52963276        0
Si       3.81446482      -0.07899031      11.53206006        0
Si       5.85538054       9.56741202      11.60488081        0
Si       3.85123804       1.43830053      13.36909245        0
Si       6.01531610       2.35284332      13.40300728        0
Si       2.06198568       3.02955521      13.16783434        0
Si       0.14607479       1.53379670      13.35546363        0
Si       7.82661863       0.82071620      12.35335822        0
Si       9.54782214       2.49858631      13.30761437        0
Si       5.63939653       7.94062117      13.31285907        0
Si       7.66073726       6.71724053      13.51688878        0
Si       3.77209120       6.45485485      12.76996823        0
Si       9.52594268       8.23754416      13.44287013        0
Si      -0.08369190       6.87222904      13.41125439        0
Si       1.96133289       7.97677176      13.28555862        0
Si       9.49874525       4.35302359      14.74976494        0
Si       0.02058100       5.36919469      15.28114072        0
Si       7.71054711       5.56351546      15.62810491        0
Si       5.93970814       4.27725013      14.74571562        0
Si       3.85356173       5.35634196      14.88757299        0
Si       1.96528324       4.04745570      15.26091212        0
Si       1.94221658       9.47111979      15.16470001        0
Si       0.02958516      -0.07810701      15.07776999        0
Si       3.88708187      -0.07116305      15.11412756        0
Si       5.81181604       9.58609215      15.03319876        0
Si       9.59973771       9.56836784      15.36074400        0
Si       7.66311047       0.09512760      15.10799033        0
Si       0.02773976       6.99986392      16.92395296        0
Si       9.41699879       8.02165560      17.27893757        0
Si       1.95301332       8.21520800      17.23251946        0
