82
Lattice="11.547836581764841 0.0 0.0 0.0 10.88740474 0.0 0.0 0.0 21.54783658176484" Properties=species:S:1:pos:R:3:spacegroup_kinds:I:1 spacegroup="P 1" unit_cell=conventional occupancy="_JSON {\"0\": {\"Si\": 1.0}, \"1\": {\"Si\": 1.0}, \"2\": {\"Si\": 1.0}, \"3\": {\"Si\": 1.0}, \"4\": {\"Si\": 1.0}, \"5\": {\"Si\": 1.0}, \"6\": {\"Si\": 1.0}, \"7\": {\"Si\": 1.0}, \"8\": {\"Si\": 1.0}, \"9\": {\"Si\": 1.0}, \"10\": {\"Si\": 1.0}, \"11\": {\"Si\": 1.0}, \"12\": {\"Si\": 1.0}, \"13\": {\"Si\": 1.0}, \"14\": {\"Si\": 1.0}, \"15\": {\"Si\": 1.0}, \"16\": {\"Si\": 1.0}, \"17\": {\"Si\": 1.0}, \"18\": {\"Si\": 1.0}, \"19\": {\"Si\": 1.0}, \"20\": {\"Si\": 1.0}, \"21\": {\"Si\": 1.0}, \"22\": {\"Si\": 1.0}, \"23\": {\"Si\": 1.0}, \"24\": {\"Si\": 1.0}, \"25\": {\"Si\": 1.0}, \"26\": {\"Si\": 1.0}, \"27\": {\"Si\": 1.0}, \"28\": {\"Si\": 1.0}, \"29\": {\"Si\": 1.0}, \"30\": {\"Si\": 1.0}, \"31\": {\"Si\": 1.0}, \"32\": {\"Si\": 1.0}, \"33\": {\"Si\": 1.0}, \"34\": {\"Si\": 1.0}, \"35\": {\"Si\": 1.0}, \"36\": {\"Si\": 1.0}, \"37\": {\"Si\": 1.0}, \"38\": {\"Si\": 1.0}, \"39\": {\"Si\": 1.0}, \"40\": {\"Si\": 1.0}, \"41\": {\"Si\": 1.0}, \"42\": {\"Si\": 1.0}, \"43\": {\"Si\": 1.0}, \"44\": {\"Si\": 1.0}, \"45\": {\"Si\": 1.0}, \"46\": {\"Si\": 1.0}, \"47\": {\"Si\": 1.0}, \"48\": {\"Si\": 1.0}, \"49\": {\"Si\": 1.0}, \"50\": {\"Si\": 1.0}, \"51\": {\"Si\": 1.0}, \"52\": {\"Si\": 1.0}, \"53\": {\"Si\": 1.0}, \"54\": {\"Si\": 1.0}, \"55\": {\"Si\": 1.0}, \"56\": {\"Si\": 1.0}, \"57\": {\"Si\": 1.0}, \"58\": {\"Si\": 1.0}, \"59\": {\"Si\": 1.0}, \"60\": {\"Si\": 1.0}, \"61\": {\"Si\": 1.0}, \"62\": {\"Si\": 1.0}, \"63\": {\"Si\": 1.0}, \"64\": {\"Si\": 1.0}, \"65\": {\"Si\": 1.0}, \"66\": {\"Si\": 1.0}, \"67\": {\"Si\": 1.0}, \"68\": {\"Si\": 1.0}, \"69\": {\"Si\": 1.0}, \"70\": {\"Si\": 1.0}, \"71\": {\"Si\": 1.0}}" pbc="T T F"
Si       1.92463943       4.08277678       0.00000000        0
Si       0.00000000       0.00000000       0.00000000        1
Si       0.00000000       1.36092559       1.92463943        2
Si       1.92463943       2.72185118       1.92463943        3
Si       1.92463943       4.08277678       3.84927886        4
Si       0.00000000       0.00000000       3.84927886        5
Si      -0.00225300       1.35918900       5.78012143        6
Si       1.92226187       2.71180088       5.78475298        7
Si       1.91722601       4.09060527       7.68779084        8
Si      -0.00009075       0.04200432       7.76693015        9
Si       0.03790957       1.50368407       9.69668152       10
Si       2.01507437       2.89429270       9.69812591       11
Si       1.92463943       9.52647915       0.00000000       12
Si       0.00000000       5.44370237       0.00000000       13
Si       0.00000000       6.80462796       1.92463943       14
Si       1.92463943       8.16555355       1.92463943       15
Si       1.92463943       9.52647915       3.84927886       16
Si       0.00000000       5.44370237       3.84927886       17
Si       0.00000000       6.80462796       5.77391829       18
Si       1.91953451       8.15727749       5.77097564       19
Si       1.91241616       9.52115415       7.71554336       20
Si      -0.00359381       5.45307251       7.72251371       21
Si      -0.03877484       6.94608467       9.62349799       22
Si       1.94567747       8.18580344       9.65118944       23
Si       5.77391829       4.08277678       0.00000000       24
Si       3.84927886       0.00000000       0.00000000       25
Si       3.84927886       1.36092559       1.92463943       26
Si       5.77391829       2.72185118       1.92463943       27
Si       5.77391829       4.08277678       3.84927886       28
Si       3.84927886       0.00000000       3.84927886       29
Si       3.84717408       1.37113425       5.76716631       30
Si       5.77291737       2.71754652       5.78784469       31
Si       5.78469236       4.04976230       7.76651255       32
Si       3.83012556      -0.01829233       7.70844735       33
Si       3.87062415       1.39175358       9.61734312       34
Si       5.89187540       2.59777012       9.72492826       35
Si       5.77391829       9.52647915       0.00000000       36
Si       3.84927886       5.44370237       0.00000000       37
Si       3.84927886       6.80462796       1.92463943       38
Si       5.77391829       8.16555355       1.92463943       39
Si       5.77391829       9.52647915       3.84927886       40
Si       3.84927886       5.44370237       3.84927886       41
Si       3.84927886       6.80462796       5.77391829       42
Si       5.77338768       8.16169148       5.78105102       43
Si       5.72981712       9.48284645       7.75509191       44
Si       3.85408579       5.42277729       7.72971572       45
Si       3.62941934       6.49902779       9.81927410       46
Si       5.59981411       8.04310819       9.70484515       47
Si       9.62319715       4.08277678       0.00000000       48
Si       7.69855772       0.00000000       0.00000000       49
Si       7.69855772       1.36092559       1.92463943       50
Si       9.62319715       2.72185118       1.92463943       51
Si       9.62319715       4.08277678       3.84927886       52
Si       7.69855772       0.00000000       3.84927886       53
Si       7.69855772       1.36092559       5.77391829       54
Si       9.62849712       2.71929074       5.79750183       55
Si       9.63356247       4.06994662       7.73916524       56
Si       7.66620353      -0.00609762       7.74672984       57
Si       7.86256280       1.09574458       9.83415956       58
Si       9.59273713       2.77232940       9.70670149       59
Si       9.62319715       9.52647915       0.00000000       60
Si       7.69855772       5.44370237       0.00000000       61
Si       7.69855772       6.80462796       1.92463943       62
Si       9.62319715       8.16555355       1.92463943       63
Si       9.62319715       9.52647915       3.84927886       64
Si       7.69855772       5.44370237       3.84927886       65
Si       7.70433679       6.81400674       5.79616432       66
Si       9.62878048       8.17052841       5.76323612       67
Si       9.61479732       9.55639456       7.69766913       68
Si       7.71118282       5.43740632       7.76169533       69
Si       7.64745308       6.85842594       9.65440799       70
Si       9.51589583       8.35015950       9.71881482       71
Si       0.07438924       5.08808914      11.01945292        0
Si       2.47124546       4.66715881      11.28656972        0
Si       9.61670703       4.00357555      11.72911402        0
Si       7.61920224       5.23195186      11.29706359        0
Si       5.60175434       4.03916978      11.56939937        0
Si       9.10471570      10.08444855      11.32400984        0
Si      -0.09158543      -0.25100755      11.10724224        0
Si       2.00280295       9.53697945      11.63607887        0
Si       3.90304711      -0.01008368      11.46233037        0
Si       5.91288461       9.41860499      11.52104930        0
