72
Lattice="11.547836581764841 0.0 0.0 0.0 10.88740474 0.0 0.0 0.0 27.321754872647265" Properties=species:S:1:pos:R:3:spacegroup_kinds:I:1 spacegroup="P 1" unit_cell=conventional occupancy="_JSON {\"0\": {\"Si\": 1.0}, \"1\": {\"Si\": 1.0}, \"2\": {\"Si\": 1.0}, \"3\": {\"Si\": 1.0}, \"4\": {\"Si\": 1.0}, \"5\": {\"Si\": 1.0}, \"6\": {\"Si\": 1.0}, \"7\": {\"Si\": 1.0}, \"8\": {\"Si\": 1.0}, \"9\": {\"Si\": 1.0}, \"10\": {\"Si\": 1.0}, \"11\": {\"Si\": 1.0}, \"12\": {\"Si\": 1.0}, \"13\": {\"Si\": 1.0}, \"14\": {\"Si\": 1.0}, \"15\": {\"Si\": 1.0}, \"16\": {\"Si\": 1.0}, \"17\": {\"Si\": 1.0}, \"18\": {\"Si\": 1.0}, \"19\": {\"Si\": 1.0}, \"20\": {\"Si\": 1.0}, \"21\": {\"Si\": 1.0}, \"22\": {\"Si\": 1.0}, \"23\": {\"Si\": 1.0}, \"24\": {\"Si\": 1.0}, \"25\": {\"Si\": 1.0}, \"26\": {\"Si\": 1.0}, \"27\": {\"Si\": 1.0}, \"28\": {\"Si\": 1.0}, \"29\": {\"Si\": 1.0}, \"30\": {\"Si\": 1.0}, \"31\": {\"Si\": 1.0}, \"32\": {\"Si\": 1.0}, \"33\": {\"Si\": 1.0}, \"34\": {\"Si\": 1.0}, \"35\": {\"Si\": 1.0}, \"36\": {\"Si\": 1.0}, \"37\": {\"Si\": 1.0}, \"38\": {\"Si\": 1.0}, \"39\": {\"Si\": 1.0}, \"40\": {\"Si\": 1.0}, \"41\": {\"Si\": 1.0}, \"42\": {\"Si\": 1.0}, \"43\": {\"Si\": 1.0}, \"44\": {\"Si\": 1.0}, \"45\": {\"Si\": 1.0}, \"46\": {\"Si\": 1.0}, \"47\": {\"Si\": 1.0}, \"48\": {\"Si\": 1.0}, \"49\": {\"Si\": 1.0}, \"50\": {\"Si\": 1.0}, \"51\": {\"Si\": 1.0}, \"52\": {\"Si\": 1.0}, \"53\": {\"Si\": 1.0}, \"54\": {\"Si\": 1.0}, \"55\": {\"Si\": 1.0}, \"56\": {\"Si\": 1.0}, \"57\": {\"Si\": 1.0}, \"58\": {\"Si\": 1.0}, \"59\": {\"Si\": 1.0}, \"60\": {\"Si\": 1.0}, \"61\": {\"Si\": 1.0}, \"62\": {\"Si\": 1.0}, \"63\": {\"Si\": 1.0}, \"64\": {\"Si\": 1.0}, \"65\": {\"Si\": 1.0}, \"66\": {\"Si\": 1.0}, \"67\": {\"Si\": 1.0}, \"68\": {\"Si\": 1.0}, \"69\": {\"Si\": 1.0}, \"70\": {\"Si\": 1.0}, \"71\": {\"Si\": 1.0}}" pbc="T T F"
Si       1.92463943       4.08277678       0.00000000        0
Si       0.00000000       0.00000000       0.00000000        1
Si       0.00000000       1.36092559       1.92463943        2
Si       1.92463943       2.72185118       1.92463943        3
Si       1.92463943       4.08277678       3.84927886        4
Si       0.00000000       0.00000000       3.84927886        5
Si       0.00000000       1.36092559       5.77391829        6
Si       1.92463943       2.72185118       5.77391829        7
Si       1.92463943       4.08277678       7.69855772        8
Si       0.00000000       0.00000000       7.69855772        9
Si       0.00000000       1.36092559       9.62319715       10
Si       1.92463943       2.72185118       9.62319715       11
Si       1.92463943       9.52647915       0.00000000       12
Si       0.00000000       5.44370237       0.00000000       13
Si       0.00000000       6.80462796       1.92463943       14
Si       1.92463943       8.16555355       1.92463943       15
Si       1.92463943       9.52647915       3.84927886       16
Si       0.00000000       5.44370237       3.84927886       17
Si       0.00000000       6.80462796       5.77391829       18
Si       1.92463943       8.16555355       5.77391829       19
Si       1.92463943       9.52647915       7.69855772       20
Si       0.00000000       5.44370237       7.69855772       21
Si       0.00000000       6.80462796       9.62319715       22
Si       1.92463943       8.16555355       9.62319715       23
Si       5.77391829       4.08277678       0.00000000       24
Si       3.84927886       0.00000000       0.00000000       25
Si       3.84927886       1.36092559       1.92463943       26
Si       5.77391829       2.72185118       1.92463943       27
Si       5.77391829       4.08277678       3.84927886       28
Si       3.84927886       0.00000000       3.84927886       29
Si       3.84927886       1.36092559       5.77391829       30
Si       5.77391829       2.72185118       5.77391829       31
Si       5.77391829       4.08277678       7.69855772       32
Si       3.84927886       0.00000000       7.69855772       33
Si       3.84927886       1.36092559       9.62319715       34
Si       5.77391829       2.72185118       9.62319715       35
Si       5.77391829       9.52647915       0.00000000       36
Si       3.84927886       5.44370237       0.00000000       37
Si       3.84927886       6.80462796       1.92463943       38
Si       5.77391829       8.16555355       1.92463943       39
Si       5.77391829       9.52647915       3.84927886       40
Si       3.84927886       5.44370237       3.84927886       41
Si       3.84927886       6.80462796       5.77391829       42
Si       5.77391829       8.16555355       5.77391829       43
Si       5.77391829       9.52647915       7.69855772       44
Si       3.84927886       5.44370237       7.69855772       45
Si       3.84927886       6.80462796       9.62319715       46
Si       5.77391829       8.16555355       9.62319715       47
Si       9.62319715       4.08277678       0.00000000       48
Si       7.69855772       0.00000000       0.00000000       49
Si       7.69855772       1.36092559       1.92463943       50
Si       9.62319715       2.72185118       1.92463943       51
Si       9.62319715       4.08277678       3.84927886       52
Si       7.69855772       0.00000000       3.84927886       53
Si       7.69855772       1.36092559       5.77391829       54
Si       9.62319715       2.72185118       5.77391829       55
Si       9.62319715       4.08277678       7.69855772       56
Si       7.69855772       0.00000000       7.69855772       57
Si       7.69855772       1.36092559       9.62319715       58
Si       9.62319715       2.72185118       9.62319715       59
Si       9.62319715       9.52647915       0.00000000       60
Si       7.69855772       5.44370237       0.00000000       61
Si       7.69855772       6.80462796       1.92463943       62
Si       9.62319715       8.16555355       1.92463943       63
Si       9.62319715       9.52647915       3.84927886       64
Si       7.69855772       5.44370237       3.84927886       65
Si       7.69855772       6.80462796       5.77391829       66
Si       9.62319715       8.16555355       5.77391829       67
Si       9.62319715       9.52647915       7.69855772       68
Si       7.69855772       5.44370237       7.69855772       69
Si       7.69855772       6.80462796       9.62319715       70
Si       9.62319715       8.16555355       9.62319715       71
