120
Lattice="11.547836581764841 0.0 0.0 0.0 10.88740474 0.0 0.0 0.0 27.321754872647265" Properties=species:S:1:pos:R:3:spacegroup_kinds:I:1 spacegroup="P 1" unit_cell=conventional occupancy="_JSON {\"0\": {\"Si\": 1.0}, \"1\": {\"Si\": 1.0}, \"2\": {\"Si\": 1.0}, \"3\": {\"Si\": 1.0}, \"4\": {\"Si\": 1.0}, \"5\": {\"Si\": 1.0}, \"6\": {\"Si\": 1.0}, \"7\": {\"Si\": 1.0}, \"8\": {\"Si\": 1.0}, \"9\": {\"Si\": 1.0}, \"10\": {\"Si\": 1.0}, \"11\": {\"Si\": 1.0}, \"12\": {\"Si\": 1.0}, \"13\": {\"Si\": 1.0}, \"14\": {\"Si\": 1.0}, \"15\": {\"Si\": 1.0}, \"16\": {\"Si\": 1.0}, \"17\": {\"Si\": 1.0}, \"18\": {\"Si\": 1.0}, \"19\": {\"Si\": 1.0}, \"20\": {\"Si\": 1.0}, \"21\": {\"Si\": 1.0}, \"22\": {\"Si\": 1.0}, \"23\": {\"Si\": 1.0}, \"24\": {\"Si\": 1.0}, \"25\": {\"Si\": 1.0}, \"26\": {\"Si\": 1.0}, \"27\": {\"Si\": 1.0}, \"28\": {\"Si\": 1.0}, \"29\": {\"Si\": 1.0}, \"30\": {\"Si\": 1.0}, \"31\": {\"Si\": 1.0}, \"32\": {\"Si\": 1.0}, \"33\": {\"Si\": 1.0}, \"34\": {\"Si\": 1.0}, \"35\": {\"Si\": 1.0}, \"36\": {\"Si\": 1.0}, \"37\": {\"Si\": 1.0}, \"38\": {\"Si\": 1.0}, \"39\": {\"Si\": 1.0}, \"40\": {\"Si\": 1.0}, \"41\": {\"Si\": 1.0}, \"42\": {\"Si\": 1.0}, \"43\": {\"Si\": 1.0}, \"44\": {\"Si\": 1.0}, \"45\": {\"Si\": 1.0}, \"46\": {\"Si\": 1.0}, \"47\": {\"Si\": 1.0}, \"48\": {\"Si\": 1.0}, \"49\": {\"Si\": 1.0}, \"50\": {\"Si\": 1.0}, \"51\": {\"Si\": 1.0}, \"52\": {\"Si\": 1.0}, \"53\": {\"Si\": 1.0}, \"54\": {\"Si\": 1.0}, \"55\": {\"Si\": 1.0}, \"56\": {\"Si\": 1.0}, \"57\": {\"Si\": 1.0}, \"58\": {\"Si\": 1.0}, \"59\": {\"Si\": 1.0}, \"60\": {\"Si\": 1.0}, \"61\": {\"Si\": 1.0}, \"62\": {\"Si\": 1.0}, \"63\": {\"Si\": 1.0}, \"64\": {\"Si\": 1.0}, \"65\": {\"Si\": 1.0}, \"66\": {\"Si\": 1.0}, \"67\": {\"Si\": 1.0}, \"68\": {\"Si\": 1.0}, \"69\": {\"Si\": 1.0}, \"70\": {\"Si\": 1.0}, \"71\": {\"Si\": 1.0}}" pbc="T T F"
Si       1.92463943       4.08277678       0.00000000        0
Si       0.00000000       0.00000000       0.00000000        1
Si       0.00000000       1.36092559       1.92463943        2
Si       1.92463943       2.72185118       1.92463943        3
Si       1.92463943       4.08277678       3.84927886        4
Si       0.00000000       0.00000000       3.84927886        5
Si      -0.00029990       1.36058296       5.77695672        6
Si       1.92430382       2.72048289       5.77807109        7
Si       1.92945838       4.08923189       7.69416990        8
Si       0.00192692      -0.00611475       7.69166344        9
Si       0.00104129       1.36929744       9.59368383       10
Si       1.92577036       2.72134443       9.60722332       11
Si       1.92463943       9.52647915       0.00000000       12
Si       0.00000000       5.44370237       0.00000000       13
Si       0.00000000       6.80462796       1.92463943       14
Si       1.92463943       8.16555355       1.92463943       15
Si       1.92463943       9.52647915       3.84927886       16
Si       0.00000000       5.44370237       3.84927886       17
Si       0.00000000       6.80462796       5.77391829       18
Si       1.92510740       8.16372671       5.77585041       19
Si       1.92557754       9.52646377       7.69377560       20
Si       0.00305228       5.44163249       7.69340682       21
Si       0.00238314       6.80581526       9.60612407       22
Si       1.92613534       8.16165043       9.60985144       23
Si       5.77391829       4.08277678       0.00000000       24
Si       3.84927886       0.00000000       0.00000000       25
Si       3.84927886       1.36092559       1.92463943       26
Si       5.77391829       2.72185118       1.92463943       27
Si       5.77391829       4.08277678       3.84927886       28
Si       3.84927886       0.00000000       3.84927886       29
Si       3.84825890       1.36119761       5.77497640       30
Si       5.77341336       2.71806559       5.77571927       31
Si       5.77259968       4.08603832       7.69089316       32
Si       3.84981846      -0.00667007       7.69082287       33
Si       3.84439349       1.35476780       9.60588865       34
Si       5.76753656       2.71528510       9.60325737       35
Si       5.77391829       9.52647915       0.00000000       36
Si       3.84927886       5.44370237       0.00000000       37
Si       3.84927886       6.80462796       1.92463943       38
Si       5.77391829       8.16555355       1.92463943       39
Si       5.77391829       9.52647915       3.84927886       40
Si       3.84927886       5.44370237       3.84927886       41
Si       3.84873392       6.80332883       5.78244643       42
Si       5.77333010       8.16421266       5.77692542       43
Si       5.77340059       9.52436275       7.69856019       44
Si       3.85256055       5.44515610       7.70130471       45
Si       3.84891233       6.80613932       9.61670267       46
Si       5.77345303       8.16181097       9.60879908       47
Si       9.62319715       4.08277678       0.00000000       48
Si       7.69855772       0.00000000       0.00000000       49
Si       7.69855772       1.36092559       1.92463943       50
Si       9.62319715       2.72185118       1.92463943       51
Si       9.62319715       4.08277678       3.84927886       52
Si       7.69855772       0.00000000       3.84927886       53
Si       7.69992024       1.36030140       5.77555753       54
Si       9.62415403       2.72251426       5.78207340       55
Si       9.62472898       4.08881697       7.69485142       56
Si       7.69762877      -0.01186005       7.68407073       57
Si       7.69157116       1.36157484       9.59725443       58
Si       9.61823139       2.71494497       9.60104592       59
Si       9.62319715       9.52647915       0.00000000       60
Si       7.69855772       5.44370237       0.00000000       61
Si       7.69855772       6.80462796       1.92463943       62
Si       9.62319715       8.16555355       1.92463943       63
Si       9.62319715       9.52647915       3.84927886       64
Si       7.69855772       5.44370237       3.84927886       65
Si       7.69871977       6.80649118       5.77622245       66
Si       9.62332986       8.16660628       5.77668015       67
Si       9.62520769       9.52577655       7.69434844       68
Si       7.69773617       5.44353407       7.69260214       69
Si       7.69648967       6.80973582       9.60626085       70
Si       9.62278568       8.15475098       9.59969233       71
Si      -0.00308596       5.43860615      11.52056771        0
Si       1.92399582       4.08814623      11.51483460        0
Si       3.84911449       5.43961253      11.52672644        0
Si       9.61984163       4.08358305      11.51482571        0
Si       5.77323302       4.08851091      11.51237973        0
Si       7.69813220       5.43985734      11.51873270        0
Si       7.69444763      -0.00051546      11.51239001        0
Si       9.61799275       9.52494211      11.51575297        0
Si      -0.01002434      -0.00048231      11.51181571        0
Si       1.91566043       9.52887013      11.52164786        0
Si       3.84863181      -0.01430586      11.51729478        0
Si       5.77512327       9.52582508      11.52363789        0
Si      -0.00731323       1.36638865      13.41795511        0
Si       1.92456358       2.72213209      13.42343359        0
Si       3.85130541       1.36383597      13.42404539        0
Si       5.76660898       2.73315288      13.43559780        0
Si       7.68771595       1.36663406      13.42462401        0
Si       9.61714617       2.72598210      13.42643280        0
Si       7.69345250       6.79909846      13.43616816        0
Si       9.61573415       8.15638282      13.42590840        0
Si       5.77209321       8.15157202      13.43413295        0
Si      -0.00548910       6.80306482      13.42729891        0
Si       1.92244341       8.15070270      13.41543834        0
Si       3.84823092       6.80460842      13.44596897        0
Si       1.92830391       9.52656588      15.32423737        0
Si       3.85592465      -0.02673906      15.33488382        0
Si       5.76684179       9.50066163      15.36963640        0
Si       7.67474139      -0.01848020      15.33556061        0
Si       9.59923885       9.52974873      15.34563648        0
Si      -0.01338325      -0.02947305      15.32273573        0
Si      -0.00847969       5.42222152      15.33751198        0
Si       1.94560855       4.11592456      15.33679282        0
Si       3.83523729       5.50194786      15.40770659        0
Si       5.72901933       4.12680763      15.35617928        0
Si       9.60232990       4.10444151      15.33714772        0
Si       7.67506189       5.44476040      15.36754330        0
Si      -0.00296939       1.37375490      17.17988604        0
Si       9.61609829       2.69114967      17.18913163        0
Si       1.92653750       2.69084058      17.18312086        0
Si       7.68565716       1.38153019      17.19468632        0
Si       3.85002131       1.36905055      17.20139678        0
Si       5.76224759       2.71019111      17.21253144        0
Si       1.96740507       8.05058543      17.08396308        0
Si       0.01199644       6.84947610      17.17190784        0
Si       9.62326242       8.16574514      17.22996520        0
Si       7.69683937       6.83921767      17.23763359        0
Si       5.77191027       8.14902970      17.26870011        0
Si       3.90815022       6.77494389      17.34978660        0
