150
Lattice="10.682235330000001 0.0 0.0 0.0 10.682235330000001 0.0 0.0 0.0 66.18571095624999" Properties=species:S:1:pos:R:3:spacegroup_kinds:I:1 spacegroup="P 1" unit_cell=conventional occupancy="_JSON {\"0\": {\"C\": 1.0}, \"1\": {\"C\": 1.0}, \"2\": {\"C\": 1.0}, \"3\": {\"C\": 1.0}, \"4\": {\"C\": 1.0}, \"5\": {\"C\": 1.0}, \"6\": {\"C\": 1.0}, \"7\": {\"C\": 1.0}, \"8\": {\"C\": 1.0}, \"9\": {\"C\": 1.0}, \"10\": {\"C\": 1.0}, \"11\": {\"C\": 1.0}, \"12\": {\"C\": 1.0}, \"13\": {\"C\": 1.0}, \"14\": {\"C\": 1.0}, \"15\": {\"C\": 1.0}, \"16\": {\"C\": 1.0}, \"17\": {\"C\": 1.0}, \"18\": {\"C\": 1.0}, \"19\": {\"C\": 1.0}, \"20\": {\"C\": 1.0}, \"21\": {\"C\": 1.0}, \"22\": {\"C\": 1.0}, \"23\": {\"C\": 1.0}, \"24\": {\"C\": 1.0}, \"25\": {\"C\": 1.0}, \"26\": {\"C\": 1.0}, \"27\": {\"C\": 1.0}, \"28\": {\"C\": 1.0}, \"29\": {\"C\": 1.0}, \"30\": {\"C\": 1.0}, \"31\": {\"C\": 1.0}, \"32\": {\"C\": 1.0}, \"33\": {\"C\": 1.0}, \"34\": {\"C\": 1.0}, \"35\": {\"C\": 1.0}, \"36\": {\"C\": 1.0}, \"37\": {\"C\": 1.0}, \"38\": {\"C\": 1.0}, \"39\": {\"C\": 1.0}, \"40\": {\"C\": 1.0}, \"41\": {\"C\": 1.0}, \"42\": {\"C\": 1.0}, \"43\": {\"C\": 1.0}, \"44\": {\"C\": 1.0}, \"45\": {\"C\": 1.0}, \"46\": {\"C\": 1.0}, \"47\": {\"C\": 1.0}, \"48\": {\"C\": 1.0}, \"49\": {\"C\": 1.0}, \"50\": {\"C\": 1.0}, \"51\": {\"C\": 1.0}, \"52\": {\"C\": 1.0}, \"53\": {\"C\": 1.0}, \"54\": {\"C\": 1.0}, \"55\": {\"C\": 1.0}, \"56\": {\"C\": 1.0}, \"57\": {\"C\": 1.0}, \"58\": {\"C\": 1.0}, \"59\": {\"C\": 1.0}, \"60\": {\"C\": 1.0}, \"61\": {\"C\": 1.0}, \"62\": {\"C\": 1.0}, \"63\": {\"C\": 1.0}, \"64\": {\"C\": 1.0}, \"65\": {\"C\": 1.0}, \"66\": {\"C\": 1.0}, \"67\": {\"C\": 1.0}, \"68\": {\"C\": 1.0}, \"69\": {\"C\": 1.0}, \"70\": {\"C\": 1.0}, \"71\": {\"C\": 1.0}, \"72\": {\"C\": 1.0}, \"73\": {\"C\": 1.0}, \"74\": {\"C\": 1.0}, \"75\": {\"C\": 1.0}, \"76\": {\"C\": 1.0}, \"77\": {\"C\": 1.0}, \"78\": {\"C\": 1.0}, \"79\": {\"C\": 1.0}, \"80\": {\"C\": 1.0}, \"81\": {\"C\": 1.0}, \"82\": {\"C\": 1.0}, \"83\": {\"C\": 1.0}, \"84\": {\"C\": 1.0}, \"85\": {\"C\": 1.0}, \"86\": {\"C\": 1.0}, \"87\": {\"C\": 1.0}, \"88\": {\"C\": 1.0}, \"89\": {\"C\": 1.0}, \"90\": {\"C\": 1.0}, \"91\": {\"C\": 1.0}, \"92\": {\"C\": 1.0}, \"93\": {\"C\": 1.0}, \"94\": {\"C\": 1.0}, \"95\": {\"C\": 1.0}, \"96\": {\"C\": 1.0}, \"97\": {\"C\": 1.0}, \"98\": {\"C\": 1.0}, \"99\": {\"C\": 1.0}, \"100\": {\"C\": 1.0}, \"101\": {\"C\": 1.0}, \"102\": {\"C\": 1.0}, \"103\": {\"C\": 1.0}, \"104\": {\"C\": 1.0}, \"105\": {\"C\": 1.0}, \"106\": {\"C\": 1.0}, \"107\": {\"C\": 1.0}, \"108\": {\"C\": 1.0}, \"109\": {\"C\": 1.0}, \"110\": {\"C\": 1.0}, \"111\": {\"C\": 1.0}, \"112\": {\"C\": 1.0}, \"113\": {\"C\": 1.0}, \"114\": {\"C\": 1.0}, \"115\": {\"C\": 1.0}, \"116\": {\"C\": 1.0}, \"117\": {\"C\": 1.0}, \"118\": {\"C\": 1.0}, \"119\": {\"C\": 1.0}, \"120\": {\"C\": 1.0}, \"121\": {\"C\": 1.0}, \"122\": {\"C\": 1.0}, \"123\": {\"C\": 1.0}, \"124\": {\"C\": 1.0}, \"125\": {\"C\": 1.0}, \"126\": {\"C\": 1.0}, \"127\": {\"C\": 1.0}, \"128\": {\"C\": 1.0}, \"129\": {\"C\": 1.0}, \"130\": {\"C\": 1.0}, \"131\": {\"C\": 1.0}, \"132\": {\"C\": 1.0}, \"133\": {\"C\": 1.0}, \"134\": {\"C\": 1.0}, \"135\": {\"C\": 1.0}, \"136\": {\"C\": 1.0}, \"137\": {\"C\": 1.0}, \"138\": {\"C\": 1.0}, \"139\": {\"C\": 1.0}, \"140\": {\"C\": 1.0}, \"141\": {\"C\": 1.0}, \"142\": {\"C\": 1.0}, \"143\": {\"C\": 1.0}}" pbc="T T F"
C        0.00000000       0.00000000      12.22546569        0
C        0.89018628       0.89018628      13.11565197        1
C        0.00000000       1.78037256      10.44509314        2
C        2.67055883       0.89018628      11.33527942        3
C        0.89018628       2.67055883      11.33527942        4
C        2.67159549       2.66948597      13.10626724        5
C        1.78037256       0.00000000      10.44509314        6
C        1.78037256       1.78037256      12.22546569        7
C        0.02237828       0.00847205      15.83236513        8
C        0.79940454       0.98829348      16.65579851        9
C        0.00069870       1.77909014      14.01496535       10
C        2.66804600       0.88979614      14.93605316       11
C        0.88880489       2.66773986      14.90763159       12
C        2.57169437       2.76156412      16.64795400       13
C        1.78175591       0.00211827      14.02876892       14
C        1.79505819       1.76292241      15.84395361       15
C        0.00000000       3.56074511      12.22546569       16
C        0.88881556       4.45217098      13.10685674       17
C        0.00000000       5.34111767      10.44509314       18
C        2.67055883       4.45093139      11.33527942       19
C        0.89018628       6.23130394      11.33527942       20
C        2.67055883       6.23130394      13.11565197       21
C        1.78037256       3.56074511      10.44509314       22
C        1.78037256       5.34111767      12.22546569       23
C       -0.01927555       3.57430396      15.84250644       24
C        0.97310471       4.35383377      16.63985961       25
C       -0.00152438       5.33860554      14.02438459       26
C        2.67599618       4.45704925      14.89954993       27
C        0.88457119       6.22618191      14.91675288       28
C        2.66781981       6.23218550      16.58813899       29
C        1.78012514       3.56062489      14.01060821       30
C        1.75777137       5.32833179      15.82231394       31
C        0.00000000       7.12149022      12.22546569       32
C        0.89018628       8.01167650      13.11565197       33
C        0.00000000       8.90186277      10.44509314       34
C        2.67055883       8.01167650      11.33527942       35
C        0.89018628       9.79204905      11.33527942       36
C        2.66995125       9.79352700      13.10605676       37
C        1.78037256       7.12149022      10.44509314       38
C        1.78037256       8.90186277      12.22546569       39
C       -0.00813127       7.09835013      15.82360948       40
C        0.89884645       8.00310946      16.59081739       41
C        0.00064651       8.90192176      14.01987083       42
C        2.65794200       8.00497086      14.88666072       43
C        0.89658718       9.79797362      14.92306267       44
C        2.76723341       9.69804156      16.64983652       45
C        1.77293494       7.11597886      14.01970157       46
C        1.78953922       8.92003385      15.82321733       47
C        3.56074511       0.00000000      12.22546569       48
C        4.45022253       0.89065316      13.10421920       49
C        3.56074511       1.78037256      10.44509314       50
C        6.23130394       0.89018628      11.33527942       51
C        4.45093139       2.67055883      11.33527942       52
C        6.23130394       2.67055883      13.11565197       53
C        5.34111767       0.00000000      10.44509314       54
C        5.34111767       1.78037256      12.22546569       55
C        3.54286442       0.01647007      15.83621214       56
C        4.53117150       0.80699035      16.64582135       57
C        3.55809832       1.77904853      14.02245502       58
C        6.23338843       0.89715271      14.89868278       59
C        4.43854709       2.66370398      14.92251682       60
C        6.23146492       2.67764634      16.59073057       61
C        5.34238062       0.00377497      14.00350370       62
C        5.31911899       1.77689884      15.82504838       63
C        3.56074511       3.56074511      12.22546569       64
C        4.45093139       4.45093139      13.11565197       65
C        3.56074511       5.34111767      10.44509314       66
C        6.23130394       4.45093139      11.33527942       67
C        4.45093139       6.23130394      11.33527942       68
C        6.23156666       6.23251934      13.10552391       69
C        5.34111767       3.56074511      10.44509314       70
C        5.34111767       5.34111767      12.22546569       71
C        3.54752709       3.54196760      15.83096756       72
C        4.44104971       4.46102781      16.59625401       73
C        3.56254684       5.34182153      14.01904974       74
C        6.21974854       4.44554245      14.89684170       75
C        4.45238303       6.24245053      14.91599403       76
C        6.30389393       6.17007708      16.62876691       77
C        5.33124012       3.55338664      14.02965409       78
C        5.34385687       5.36556561      15.81834162       79
C        3.56074511       7.12149022      12.22546569       80
C        4.45273810       8.01169621      13.10845172       81
C        3.56074511       8.90186277      10.44509314       82
C        6.23130394       8.01167650      11.33527942       83
C        4.45093139       9.79204905      11.33527942       84
C        6.23290228       9.79055891      13.10748997       85
C        5.34111767       7.12149022      10.44509314       86
C        5.34111767       8.90186277      12.22546569       87
C        3.56902345       7.13747960      15.81646979       88
C        4.32447339       8.13815340      16.63492295       89
C        3.55877695       8.90220328      14.00186119       90
C        6.22491915       8.02030134      14.93539823       91
C        4.45047135       9.80041310      14.89013571       92
C        6.13605326       9.88661308      16.64688022       93
C        5.34450492       7.12684678      14.02318876       94
C        5.34997632       8.89976901      15.83509538       95
C        7.12149022       0.00000000      12.22546569       96
C        8.01167650       0.89018628      13.11565197       97
C        7.12149022       1.78037256      10.44509314       98
C        9.79204905       0.89018628      11.33527942       99
C        8.01167650       2.67055883      11.33527942      100
C        9.79204905       2.67055883      13.11565197      101
C        8.90186277       0.00000000      10.44509314      102
C        8.90186277       1.78037256      12.22546569      103
C        7.11246911      -0.01583844      15.82531341      104
C        8.01186020       0.89078991      16.59462895      105
C        7.12323042       1.78197107      14.02214277      106
C        9.79359933       0.88260933      14.90566364      107
C        8.01728002       2.67914614      14.92780275      108
C        9.89128878       2.57720690      16.64982049      109
C        8.90186277       0.00000000      14.00583825      110
C        8.91485071       1.80093770      15.82891840      111
C        7.12149022       3.56074511      12.22546569      112
C        8.01217685       4.45090136      13.10675446      113
C        7.12149022       5.34111767      10.44509314      114
C        9.79204905       4.45093139      11.33527942      115
C        8.01167650       6.23130394      11.33527942      116
C        9.79226725       6.23071375      13.10484978      117
C        8.90186277       3.56074511      10.44509314      118
C        8.90186277       5.34111767      12.22546569      119
C        7.14272684       3.57770248      15.83016729      120
C        7.89867368       4.56211619      16.67093338      121
C        7.11851374       5.34001533      14.00356474      122
C        9.78812488       4.45073935      14.94152916      123
C        8.00981092       6.23663952      14.89652121      124
C        9.70231786       6.31039246      16.64330860      125
C        8.90452773       3.56477952      14.03614839      126
C        8.91038507       5.31996317      15.84377661      127
C        7.12149022       7.12149022      12.22546569      128
C        8.01136925       8.01213184      13.10468271      129
C        7.12149022       8.90186277      10.44509314      130
C        9.79204905       8.01167650      11.33527942      131
C        8.01167650       9.79204905      11.33527942      132
C        9.79204905       9.79204905      13.11565197      133
C        8.90186277       7.12149022      10.44509314      134
C        8.90186277       8.90186277      12.22546569      135
C        7.09988015       7.14753639      15.82666239      136
C        8.08958114       7.92451880      16.64245175      137
C        7.12184314       8.90114561      14.02014185      138
C        9.79781944       8.01759111      14.89786573      139
C        8.00653284       9.78988784      14.91801589      140
C        9.78687692       9.79576303      16.59755147      141
C        8.90359659       7.12389221      14.00541149      142
C        8.88169851       8.89662180      15.82690796      143
C        0.03346331       1.80432568      17.45733805        0
C        8.86820721       7.08993573      17.39618327        0
C        5.31518011      -0.01107574      17.40727394        0
C        1.75104486       3.53549208      17.43164648        0
C        7.13812450       5.38952143      17.39629619        0
C        3.57441350       8.93791460      17.44800509        0
