144
Lattice="10.682235330000001 0.0 0.0 0.0 10.682235330000001 0.0 0.0 0.0 66.18571095624999" Properties=species:S:1:pos:R:3:spacegroup_kinds:I:1 spacegroup="P 1" unit_cell=conventional occupancy="_JSON {\"0\": {\"C\": 1.0}, \"1\": {\"C\": 1.0}, \"2\": {\"C\": 1.0}, \"3\": {\"C\": 1.0}, \"4\": {\"C\": 1.0}, \"5\": {\"C\": 1.0}, \"6\": {\"C\": 1.0}, \"7\": {\"C\": 1.0}, \"8\": {\"C\": 1.0}, \"9\": {\"C\": 1.0}, \"10\": {\"C\": 1.0}, \"11\": {\"C\": 1.0}, \"12\": {\"C\": 1.0}, \"13\": {\"C\": 1.0}, \"14\": {\"C\": 1.0}, \"15\": {\"C\": 1.0}, \"16\": {\"C\": 1.0}, \"17\": {\"C\": 1.0}, \"18\": {\"C\": 1.0}, \"19\": {\"C\": 1.0}, \"20\": {\"C\": 1.0}, \"21\": {\"C\": 1.0}, \"22\": {\"C\": 1.0}, \"23\": {\"C\": 1.0}, \"24\": {\"C\": 1.0}, \"25\": {\"C\": 1.0}, \"26\": {\"C\": 1.0}, \"27\": {\"C\": 1.0}, \"28\": {\"C\": 1.0}, \"29\": {\"C\": 1.0}, \"30\": {\"C\": 1.0}, \"31\": {\"C\": 1.0}, \"32\": {\"C\": 1.0}, \"33\": {\"C\": 1.0}, \"34\": {\"C\": 1.0}, \"35\": {\"C\": 1.0}, \"36\": {\"C\": 1.0}, \"37\": {\"C\": 1.0}, \"38\": {\"C\": 1.0}, \"39\": {\"C\": 1.0}, \"40\": {\"C\": 1.0}, \"41\": {\"C\": 1.0}, \"42\": {\"C\": 1.0}, \"43\": {\"C\": 1.0}, \"44\": {\"C\": 1.0}, \"45\": {\"C\": 1.0}, \"46\": {\"C\": 1.0}, \"47\": {\"C\": 1.0}, \"48\": {\"C\": 1.0}, \"49\": {\"C\": 1.0}, \"50\": {\"C\": 1.0}, \"51\": {\"C\": 1.0}, \"52\": {\"C\": 1.0}, \"53\": {\"C\": 1.0}, \"54\": {\"C\": 1.0}, \"55\": {\"C\": 1.0}, \"56\": {\"C\": 1.0}, \"57\": {\"C\": 1.0}, \"58\": {\"C\": 1.0}, \"59\": {\"C\": 1.0}, \"60\": {\"C\": 1.0}, \"61\": {\"C\": 1.0}, \"62\": {\"C\": 1.0}, \"63\": {\"C\": 1.0}, \"64\": {\"C\": 1.0}, \"65\": {\"C\": 1.0}, \"66\": {\"C\": 1.0}, \"67\": {\"C\": 1.0}, \"68\": {\"C\": 1.0}, \"69\": {\"C\": 1.0}, \"70\": {\"C\": 1.0}, \"71\": {\"C\": 1.0}, \"72\": {\"C\": 1.0}, \"73\": {\"C\": 1.0}, \"74\": {\"C\": 1.0}, \"75\": {\"C\": 1.0}, \"76\": {\"C\": 1.0}, \"77\": {\"C\": 1.0}, \"78\": {\"C\": 1.0}, \"79\": {\"C\": 1.0}, \"80\": {\"C\": 1.0}, \"81\": {\"C\": 1.0}, \"82\": {\"C\": 1.0}, \"83\": {\"C\": 1.0}, \"84\": {\"C\": 1.0}, \"85\": {\"C\": 1.0}, \"86\": {\"C\": 1.0}, \"87\": {\"C\": 1.0}, \"88\": {\"C\": 1.0}, \"89\": {\"C\": 1.0}, \"90\": {\"C\": 1.0}, \"91\": {\"C\": 1.0}, \"92\": {\"C\": 1.0}, \"93\": {\"C\": 1.0}, \"94\": {\"C\": 1.0}, \"95\": {\"C\": 1.0}, \"96\": {\"C\": 1.0}, \"97\": {\"C\": 1.0}, \"98\": {\"C\": 1.0}, \"99\": {\"C\": 1.0}, \"100\": {\"C\": 1.0}, \"101\": {\"C\": 1.0}, \"102\": {\"C\": 1.0}, \"103\": {\"C\": 1.0}, \"104\": {\"C\": 1.0}, \"105\": {\"C\": 1.0}, \"106\": {\"C\": 1.0}, \"107\": {\"C\": 1.0}, \"108\": {\"C\": 1.0}, \"109\": {\"C\": 1.0}, \"110\": {\"C\": 1.0}, \"111\": {\"C\": 1.0}, \"112\": {\"C\": 1.0}, \"113\": {\"C\": 1.0}, \"114\": {\"C\": 1.0}, \"115\": {\"C\": 1.0}, \"116\": {\"C\": 1.0}, \"117\": {\"C\": 1.0}, \"118\": {\"C\": 1.0}, \"119\": {\"C\": 1.0}, \"120\": {\"C\": 1.0}, \"121\": {\"C\": 1.0}, \"122\": {\"C\": 1.0}, \"123\": {\"C\": 1.0}, \"124\": {\"C\": 1.0}, \"125\": {\"C\": 1.0}, \"126\": {\"C\": 1.0}, \"127\": {\"C\": 1.0}, \"128\": {\"C\": 1.0}, \"129\": {\"C\": 1.0}, \"130\": {\"C\": 1.0}, \"131\": {\"C\": 1.0}, \"132\": {\"C\": 1.0}, \"133\": {\"C\": 1.0}, \"134\": {\"C\": 1.0}, \"135\": {\"C\": 1.0}, \"136\": {\"C\": 1.0}, \"137\": {\"C\": 1.0}, \"138\": {\"C\": 1.0}, \"139\": {\"C\": 1.0}, \"140\": {\"C\": 1.0}, \"141\": {\"C\": 1.0}, \"142\": {\"C\": 1.0}, \"143\": {\"C\": 1.0}}" pbc="T T F"
C        0.00000000       0.00000000      12.22546569        0
C        0.89018628       0.89018628      13.11565197        1
C        0.00000000       1.78037256      10.44509314        2
C        2.67055883       0.89018628      11.33527942        3
C        0.89018628       2.67055883      11.33527942        4
C        2.67055883       2.67055883      13.11565197        5
C        1.78037256       0.00000000      10.44509314        6
C        1.78037256       1.78037256      12.22546569        7
C        0.00000000       0.00000000      15.78621080        8
C        0.89018628       0.89018628      16.67639708        9
C        0.00000000       1.78037256      14.00583825       10
C        2.67055883       0.89018628      14.89602453       11
C        0.89018628       2.67055883      14.89602453       12
C        2.67055883       2.67055883      16.67639708       13
C        1.78037256       0.00000000      14.00583825       14
C        1.78037256       1.78037256      15.78621080       15
C        0.00000000       3.56074511      12.22546569       16
C        0.89018628       4.45093139      13.11565197       17
C        0.00000000       5.34111767      10.44509314       18
C        2.67055883       4.45093139      11.33527942       19
C        0.89018628       6.23130394      11.33527942       20
C        2.67055883       6.23130394      13.11565197       21
C        1.78037256       3.56074511      10.44509314       22
C        1.78037256       5.34111767      12.22546569       23
C        0.00000000       3.56074511      15.78621080       24
C        0.89018628       4.45093139      16.67639708       25
C        0.00000000       5.34111767      14.00583825       26
C        2.67055883       4.45093139      14.89602453       27
C        0.89018628       6.23130394      14.89602453       28
C        2.67055883       6.23130394      16.67639708       29
C        1.78037256       3.56074511      14.00583825       30
C        1.78037256       5.34111767      15.78621080       31
C        0.00000000       7.12149022      12.22546569       32
C        0.89018628       8.01167650      13.11565197       33
C        0.00000000       8.90186277      10.44509314       34
C        2.67055883       8.01167650      11.33527942       35
C        0.89018628       9.79204905      11.33527942       36
C        2.67055883       9.79204905      13.11565197       37
C        1.78037256       7.12149022      10.44509314       38
C        1.78037256       8.90186277      12.22546569       39
C        0.00000000       7.12149022      15.78621080       40
C        0.89018628       8.01167650      16.67639708       41
C        0.00000000       8.90186277      14.00583825       42
C        2.67055883       8.01167650      14.89602453       43
C        0.89018628       9.79204905      14.89602453       44
C        2.67055883       9.79204905      16.67639708       45
C        1.78037256       7.12149022      14.00583825       46
C        1.78037256       8.90186277      15.78621080       47
C        3.56074511       0.00000000      12.22546569       48
C        4.45093139       0.89018628      13.11565197       49
C        3.56074511       1.78037256      10.44509314       50
C        6.23130394       0.89018628      11.33527942       51
C        4.45093139       2.67055883      11.33527942       52
C        6.23130394       2.67055883      13.11565197       53
C        5.34111767       0.00000000      10.44509314       54
C        5.34111767       1.78037256      12.22546569       55
C        3.56074511       0.00000000      15.78621080       56
C        4.45093139       0.89018628      16.67639708       57
C        3.56074511       1.78037256      14.00583825       58
C        6.23130394       0.89018628      14.89602453       59
C        4.45093139       2.67055883      14.89602453       60
C        6.23130394       2.67055883      16.67639708       61
C        5.34111767       0.00000000      14.00583825       62
C        5.34111767       1.78037256      15.78621080       63
C        3.56074511       3.56074511      12.22546569       64
C        4.45093139       4.45093139      13.11565197       65
C        3.56074511       5.34111767      10.44509314       66
C        6.23130394       4.45093139      11.33527942       67
C        4.45093139       6.23130394      11.33527942       68
C        6.23130394       6.23130394      13.11565197       69
C        5.34111767       3.56074511      10.44509314       70
C        5.34111767       5.34111767      12.22546569       71
C        3.56074511       3.56074511      15.78621080       72
C        4.45093139       4.45093139      16.67639708       73
C        3.56074511       5.34111767      14.00583825       74
C        6.23130394       4.45093139      14.89602453       75
C        4.45093139       6.23130394      14.89602453       76
C        6.23130394       6.23130394      16.67639708       77
C        5.34111767       3.56074511      14.00583825       78
C        5.34111767       5.34111767      15.78621080       79
C        3.56074511       7.12149022      12.22546569       80
C        4.45093139       8.01167650      13.11565197       81
C        3.56074511       8.90186277      10.44509314       82
C        6.23130394       8.01167650      11.33527942       83
C        4.45093139       9.79204905      11.33527942       84
C        6.23130394       9.79204905      13.11565197       85
C        5.34111767       7.12149022      10.44509314       86
C        5.34111767       8.90186277      12.22546569       87
C        3.56074511       7.12149022      15.78621080       88
C        4.45093139       8.01167650      16.67639708       89
C        3.56074511       8.90186277      14.00583825       90
C        6.23130394       8.01167650      14.89602453       91
C        4.45093139       9.79204905      14.89602453       92
C        6.23130394       9.79204905      16.67639708       93
C        5.34111767       7.12149022      14.00583825       94
C        5.34111767       8.90186277      15.78621080       95
C        7.12149022       0.00000000      12.22546569       96
C        8.01167650       0.89018628      13.11565197       97
C        7.12149022       1.78037256      10.44509314       98
C        9.79204905       0.89018628      11.33527942       99
C        8.01167650       2.67055883      11.33527942      100
C        9.79204905       2.67055883      13.11565197      101
C        8.90186277       0.00000000      10.44509314      102
C        8.90186277       1.78037256      12.22546569      103
C        7.12149022       0.00000000      15.78621080      104
C        8.01167650       0.89018628      16.67639708      105
C        7.12149022       1.78037256      14.00583825      106
C        9.79204905       0.89018628      14.89602453      107
C        8.01167650       2.67055883      14.89602453      108
C        9.79204905       2.67055883      16.67639708      109
C        8.90186277       0.00000000      14.00583825      110
C        8.90186277       1.78037256      15.78621080      111
C        7.12149022       3.56074511      12.22546569      112
C        8.01167650       4.45093139      13.11565197      113
C        7.12149022       5.34111767      10.44509314      114
C        9.79204905       4.45093139      11.33527942      115
C        8.01167650       6.23130394      11.33527942      116
C        9.79204905       6.23130394      13.11565197      117
C        8.90186277       3.56074511      10.44509314      118
C        8.90186277       5.34111767      12.22546569      119
C        7.12149022       3.56074511      15.78621080      120
C        8.01167650       4.45093139      16.67639708      121
C        7.12149022       5.34111767      14.00583825      122
C        9.79204905       4.45093139      14.89602453      123
C        8.01167650       6.23130394      14.89602453      124
C        9.79204905       6.23130394      16.67639708      125
C        8.90186277       3.56074511      14.00583825      126
C        8.90186277       5.34111767      15.78621080      127
C        7.12149022       7.12149022      12.22546569      128
C        8.01167650       8.01167650      13.11565197      129
C        7.12149022       8.90186277      10.44509314      130
C        9.79204905       8.01167650      11.33527942      131
C        8.01167650       9.79204905      11.33527942      132
C        9.79204905       9.79204905      13.11565197      133
C        8.90186277       7.12149022      10.44509314      134
C        8.90186277       8.90186277      12.22546569      135
C        7.12149022       7.12149022      15.78621080      136
C        8.01167650       8.01167650      16.67639708      137
C        7.12149022       8.90186277      14.00583825      138
C        9.79204905       8.01167650      14.89602453      139
C        8.01167650       9.79204905      14.89602453      140
C        9.79204905       9.79204905      16.67639708      141
C        8.90186277       7.12149022      14.00583825      142
C        8.90186277       8.90186277      15.78621080      143
