553
Lattice="10.682235330000001 0.0 0.0 0.0 10.682235330000001 0.0 0.0 0.0 66.18571095624999" Properties=species:S:1:pos:R:3:spacegroup_kinds:I:1 spacegroup="P 1" unit_cell=conventional occupancy="_JSON {\"0\": {\"C\": 1.0}, \"1\": {\"C\": 1.0}, \"2\": {\"C\": 1.0}, \"3\": {\"C\": 1.0}, \"4\": {\"C\": 1.0}, \"5\": {\"C\": 1.0}, \"6\": {\"C\": 1.0}, \"7\": {\"C\": 1.0}, \"8\": {\"C\": 1.0}, \"9\": {\"C\": 1.0}, \"10\": {\"C\": 1.0}, \"11\": {\"C\": 1.0}, \"12\": {\"C\": 1.0}, \"13\": {\"C\": 1.0}, \"14\": {\"C\": 1.0}, \"15\": {\"C\": 1.0}, \"16\": {\"C\": 1.0}, \"17\": {\"C\": 1.0}, \"18\": {\"C\": 1.0}, \"19\": {\"C\": 1.0}, \"20\": {\"C\": 1.0}, \"21\": {\"C\": 1.0}, \"22\": {\"C\": 1.0}, \"23\": {\"C\": 1.0}, \"24\": {\"C\": 1.0}, \"25\": {\"C\": 1.0}, \"26\": {\"C\": 1.0}, \"27\": {\"C\": 1.0}, \"28\": {\"C\": 1.0}, \"29\": {\"C\": 1.0}, \"30\": {\"C\": 1.0}, \"31\": {\"C\": 1.0}, \"32\": {\"C\": 1.0}, \"33\": {\"C\": 1.0}, \"34\": {\"C\": 1.0}, \"35\": {\"C\": 1.0}, \"36\": {\"C\": 1.0}, \"37\": {\"C\": 1.0}, \"38\": {\"C\": 1.0}, \"39\": {\"C\": 1.0}, \"40\": {\"C\": 1.0}, \"41\": {\"C\": 1.0}, \"42\": {\"C\": 1.0}, \"43\": {\"C\": 1.0}, \"44\": {\"C\": 1.0}, \"45\": {\"C\": 1.0}, \"46\": {\"C\": 1.0}, \"47\": {\"C\": 1.0}, \"48\": {\"C\": 1.0}, \"49\": {\"C\": 1.0}, \"50\": {\"C\": 1.0}, \"51\": {\"C\": 1.0}, \"52\": {\"C\": 1.0}, \"53\": {\"C\": 1.0}, \"54\": {\"C\": 1.0}, \"55\": {\"C\": 1.0}, \"56\": {\"C\": 1.0}, \"57\": {\"C\": 1.0}, \"58\": {\"C\": 1.0}, \"59\": {\"C\": 1.0}, \"60\": {\"C\": 1.0}, \"61\": {\"C\": 1.0}, \"62\": {\"C\": 1.0}, \"63\": {\"C\": 1.0}, \"64\": {\"C\": 1.0}, \"65\": {\"C\": 1.0}, \"66\": {\"C\": 1.0}, \"67\": {\"C\": 1.0}, \"68\": {\"C\": 1.0}, \"69\": {\"C\": 1.0}, \"70\": {\"C\": 1.0}, \"71\": {\"C\": 1.0}, \"72\": {\"C\": 1.0}, \"73\": {\"C\": 1.0}, \"74\": {\"C\": 1.0}, \"75\": {\"C\": 1.0}, \"76\": {\"C\": 1.0}, \"77\": {\"C\": 1.0}, \"78\": {\"C\": 1.0}, \"79\": {\"C\": 1.0}, \"80\": {\"C\": 1.0}, \"81\": {\"C\": 1.0}, \"82\": {\"C\": 1.0}, \"83\": {\"C\": 1.0}, \"84\": {\"C\": 1.0}, \"85\": {\"C\": 1.0}, \"86\": {\"C\": 1.0}, \"87\": {\"C\": 1.0}, \"88\": {\"C\": 1.0}, \"89\": {\"C\": 1.0}, \"90\": {\"C\": 1.0}, \"91\": {\"C\": 1.0}, \"92\": {\"C\": 1.0}, \"93\": {\"C\": 1.0}, \"94\": {\"C\": 1.0}, \"95\": {\"C\": 1.0}, \"96\": {\"C\": 1.0}, \"97\": {\"C\": 1.0}, \"98\": {\"C\": 1.0}, \"99\": {\"C\": 1.0}, \"100\": {\"C\": 1.0}, \"101\": {\"C\": 1.0}, \"102\": {\"C\": 1.0}, \"103\": {\"C\": 1.0}, \"104\": {\"C\": 1.0}, \"105\": {\"C\": 1.0}, \"106\": {\"C\": 1.0}, \"107\": {\"C\": 1.0}, \"108\": {\"C\": 1.0}, \"109\": {\"C\": 1.0}, \"110\": {\"C\": 1.0}, \"111\": {\"C\": 1.0}, \"112\": {\"C\": 1.0}, \"113\": {\"C\": 1.0}, \"114\": {\"C\": 1.0}, \"115\": {\"C\": 1.0}, \"116\": {\"C\": 1.0}, \"117\": {\"C\": 1.0}, \"118\": {\"C\": 1.0}, \"119\": {\"C\": 1.0}, \"120\": {\"C\": 1.0}, \"121\": {\"C\": 1.0}, \"122\": {\"C\": 1.0}, \"123\": {\"C\": 1.0}, \"124\": {\"C\": 1.0}, \"125\": {\"C\": 1.0}, \"126\": {\"C\": 1.0}, \"127\": {\"C\": 1.0}, \"128\": {\"C\": 1.0}, \"129\": {\"C\": 1.0}, \"130\": {\"C\": 1.0}, \"131\": {\"C\": 1.0}, \"132\": {\"C\": 1.0}, \"133\": {\"C\": 1.0}, \"134\": {\"C\": 1.0}, \"135\": {\"C\": 1.0}, \"136\": {\"C\": 1.0}, \"137\": {\"C\": 1.0}, \"138\": {\"C\": 1.0}, \"139\": {\"C\": 1.0}, \"140\": {\"C\": 1.0}, \"141\": {\"C\": 1.0}, \"142\": {\"C\": 1.0}, \"143\": {\"C\": 1.0}}" pbc="T T F"
C        0.00000000       0.00000000      12.22546569        0
C        0.89018628       0.89018628      13.11565197        1
C        0.00000000       1.78037256      10.44509314        2
C        2.67055883       0.89018628      11.33527942        3
C        0.89018628       2.67055883      11.33527942        4
C        2.67055883       2.67055883      13.11565197        5
C        1.78037256       0.00000000      10.44509314        6
C        1.78037256       1.78037256      12.22546569        7
C        0.00379009       0.01014915      15.79717953        8
C        0.86902194       0.90911514      16.69875744        9
C        0.00000000       1.78037256      14.00583825       10
C        2.66594971       0.88526539      14.94899077       11
C        0.90299441       2.66289332      14.90750097       12
C        2.67074646       2.66373789      16.72488297       13
C        1.78697607       0.01369389      14.02087301       14
C        1.78745905       1.77172460      15.83651029       15
C        0.00000000       3.56074511      12.22546569       16
C        0.89018628       4.45093139      13.11565197       17
C        0.00000000       5.34111767      10.44509314       18
C        2.67055883       4.45093139      11.33527942       19
C        0.89018628       6.23130394      11.33527942       20
C        2.67055883       6.23130394      13.11565197       21
C        1.78037256       3.56074511      10.44509314       22
C        1.78037256       5.34111767      12.22546569       23
C        0.00928565       3.55127298      15.76126072       24
C        0.91468164       4.42816900      16.67326143       25
C        0.00355980       5.33732932      14.03591965       26
C        2.69616181       4.45259251      14.93305730       27
C        0.90243914       6.22985451      14.93125083       28
C        2.65905921       6.25568061      16.69882713       29
C        1.78371659       3.56298541      13.99368705       30
C        1.79989192       5.35197069      15.80338649       31
C        0.00000000       7.12149022      12.22546569       32
C        0.89018628       8.01167650      13.11565197       33
C        0.00000000       8.90186277      10.44509314       34
C        2.67055883       8.01167650      11.33527942       35
C        0.89018628       9.79204905      11.33527942       36
C        2.67055883       9.79204905      13.11565197       37
C        1.78037256       7.12149022      10.44509314       38
C        1.78037256       8.90186277      12.22546569       39
C       -0.00420127       7.11456764      15.79672574       40
C        0.89189373       8.00944704      16.68710820       41
C       -0.00028022       8.91151325      14.01954244       42
C        2.65790682       8.02570138      14.87092208       43
C        0.89449993       9.79539227      14.87886075       44
C        2.67540807       9.78764643      16.65144890       45
C        1.77270445       7.11747314      14.01581340       46
C        1.77462605       8.90036377      15.76366142       47
C        3.56074511       0.00000000      12.22546569       48
C        4.45093139       0.89018628      13.11565197       49
C        3.56074511       1.78037256      10.44509314       50
C        6.23130394       0.89018628      11.33527942       51
C        4.45093139       2.67055883      11.33527942       52
C        6.23130394       2.67055883      13.11565197       53
C        5.34111767       0.00000000      10.44509314       54
C        5.34111767       1.78037256      12.22546569       55
C        3.58120382       0.00459506      15.78799821       56
C        4.46077331       0.91473529      16.70703514       57
C        3.55906833       1.77537074      14.03517686       58
C        6.25209580       0.89511496      14.89964634       59
C        4.46615351       2.66664288      14.92455940       60
C        6.24535442       2.68411369      16.65522410       61
C        5.34019645       0.00149594      13.99337920       62
C        5.37559660       1.80520125      15.78768125       63
C        3.56074511       3.56074511      12.22546569       64
C        4.45093139       4.45093139      13.11565197       65
C        3.56074511       5.34111767      10.44509314       66
C        6.23130394       4.45093139      11.33527942       67
C        4.45093139       6.23130394      11.33527942       68
C        6.23130394       6.23130394      13.11565197       69
C        5.34111767       3.56074511      10.44509314       70
C        5.34111767       5.34111767      12.22546569       71
C        3.55005569       3.53714278      15.81845379       72
C        4.44094192       4.45161663      16.66770989       73
C        3.57746474       5.35800661      14.00274962       74
C        6.22257379       4.45739752      14.86520630       75
C        4.44942291       6.24978649      14.86887994       76
C        6.23067621       6.21902896      16.68313596       77
C        5.33237900       3.55418984      14.01551687       78
C        5.31648173       5.33551736      15.76167913       79
C        3.56074511       7.12149022      12.22546569       80
C        4.45093139       8.01167650      13.11565197       81
C        3.56074511       8.90186277      10.44509314       82
C        6.23130394       8.01167650      11.33527942       83
C        4.45093139       9.79204905      11.33527942       84
C        6.23130394       9.79204905      13.11565197       85
C        5.34111767       7.12149022      10.44509314       86
C        5.34111767       8.90186277      12.22546569       87
C        3.56544747       7.12543817      15.80642202       88
C        4.46940900       7.97580461      16.70736666       89
C        3.55988266       8.90169022      14.01226341       90
C        6.23322174       7.99704489      14.95189175       91
C        4.44183461       9.78706153      14.92943646       92
C        6.20757767       9.80862613      16.72299258       93
C        5.35431936       7.13073748      14.02394096       94
C        5.32042019       8.89512870      15.82957968       95
C        7.12149022       0.00000000      12.22546569       96
C        8.01167650       0.89018628      13.11565197       97
C        7.12149022       1.78037256      10.44509314       98
C        9.79204905       0.89018628      11.33527942       99
C        8.01167650       2.67055883      11.33527942      100
C        9.79204905       2.67055883      13.11565197      101
C        8.90186277       0.00000000      10.44509314      102
C        8.90186277       1.78037256      12.22546569      103
C        7.09766883      -0.02385117      15.80315793      104
C        8.02642663       0.87062910      16.64667544      105
C        7.13713538       1.80528219      13.98438895      106
C        9.78964902       0.88846089      14.86622704      107
C        8.01440249       2.68736280      14.84960514      108
C        9.78265506       2.66864767      16.68049384      109
C        8.89834761      -0.00788349      14.00950602      110
C        8.88977976       1.77788052      15.74579478      111
C        7.12149022       3.56074511      12.22546569      112
C        8.01167650       4.45093139      13.11565197      113
C        7.12149022       5.34111767      10.44509314      114
C        9.79204905       4.45093139      11.33527942      115
C        8.01167650       6.23130394      11.33527942      116
C        9.79204905       6.23130394      13.11565197      117
C        8.90186277       3.56074511      10.44509314      118
C        8.90186277       5.34111767      12.22546569      119
C        7.12416615       3.57297192      15.78257403      120
C        7.99806274       4.45604545      16.71922718      121
C        7.12240146       5.34016671      14.00739107      122
C        9.79822974       4.44482612      14.93660142      123
C        8.01859927       6.22479906      14.92956317      124
C        9.78751248       6.23647778      16.66983467      125
C        8.91562877       3.58258939      14.01155414      126
C        8.90153329       5.34132690      15.84557783      127
C        7.12149022       7.12149022      12.22546569      128
C        8.01167650       8.01167650      13.11565197      129
C        7.12149022       8.90186277      10.44509314      130
C        9.79204905       8.01167650      11.33527942      131
C        8.01167650       9.79204905      11.33527942      132
C        9.79204905       9.79204905      13.11565197      133
C        8.90186277       7.12149022      10.44509314      134
C        8.90186277       8.90186277      12.22546569      135
C        7.13464517       7.12169706      15.79123594      136
C        8.00202616       8.04255722      16.68910908      137
C        7.11522907       8.90342633      14.03347947      138
C        9.79487860       8.01975383      14.93301282      139
C        8.01141528       9.78046842      14.91686748      140
C        9.83666803       9.76985018      16.70723839      141
C        8.90178580       7.12157020      14.02095273      142
C        8.93304611       8.93099297      15.82479016      143
C        0.00448053       1.81209112      17.57863202        0
C        8.90786122       7.13948232      17.58605938        0
C        3.58367936       8.90926542      17.56567475        0
C        5.34565263       3.56508610      17.54384947        0
C        1.78868652       7.14857639      17.55251727        0
C        8.91898134      -0.00589249      17.53546773        0
C        7.13565016       5.36108830      17.59495708        0
C        3.54654868       5.34434905      17.60693095        0
C        5.33298032       7.08077218      17.61374616        0
C        0.01334863       8.88275943      17.62113769        0
C        1.76676706      -0.00772894      17.58468267        0
C        7.13116078       1.77529616      17.56393135        0
C        8.88334190       3.53856193      17.58462390        0
C        1.78620581       3.55734787      17.60904571        0
C        5.35520711       0.03392708      17.61219374        0
C        0.00640866       5.33553081      17.54444901        0
C        7.08762624       8.90034124      17.56944685        0
C        3.54248620       1.75596836      17.60469462        0
C        9.77604931       8.03375290      18.49411960        0
C        2.62634512       0.90198146      18.46314607        0
C        2.68883504       4.42916439      18.49167200        0
C        4.45263659       9.79801643      18.45168438        0
C        0.89750583       6.23585074      18.44110928        0
C        2.68375811       8.02111733      18.48856152        0
C        0.92057877       9.76630719      18.49215878        0
C        6.23703704       7.97806337      18.45262801        0
C        4.41889137       6.25317276      18.51706695        0
C        9.80580198       0.87988089      18.41869998        0
C        8.00090366       2.66169518      18.45919073        0
C        6.21486496       4.47446609      18.45706443        0
C        4.46400885       2.64912759      18.49045702        0
C        6.24998388       0.90541240      18.50567626        0
C        8.04576275       6.22185075      18.51125559        0
C        9.78958873       4.44771856      18.49002308        0
C        0.85875253       2.69652739      18.52480845        0
C        7.99564960       9.81358166      18.46813569        0
C       -0.01935655       3.55564503      19.41884311        0
C        8.88816370       8.91817061      19.33332524        0
C        5.34714293       1.78950187      19.41105260        0
C        7.13094778       7.11447957      19.35387225        0
C        5.31815508       5.34199214      19.33448143        0
C        1.77804508       5.32360649      19.41297897        0
C        7.13837348      -0.00522225      19.41358128        0
C        8.92003969       1.75317752      19.37927730        0
C        8.89897609       5.31457089      19.40215709        0
C        0.00345029       7.11685315      19.36995802        0
C        3.56190625       3.53608926      19.32536174        0
C        7.12018863       3.56489699      19.34329708        0
C        1.80086508       8.89781660      19.39053648        0
C        5.35813839       8.89026421      19.38016003        0
C        3.55244800       0.00735771      19.38765656        0
C        1.74805308       1.77122990      19.35539214        0
C        3.56802839       7.13517201      19.43461337        0
C       -0.00740293      -0.02592273      19.31082663        0
C        0.84789919       0.88253925      20.24203411        0
C        4.47904660       7.98852148      20.30634659        0
C        6.22608610       2.68641728      20.25526963        0
C        2.68054498       9.78556520      20.25742870        0
C        7.98524255       8.03793324      20.27629421        0
C        0.91434115       4.42003910      20.29487529        0
C        8.02836332       0.87924519      20.24428505        0
C        9.80682742       9.76627670      20.23120486        0
C        6.22258320       9.79795576      20.30998648        0
C        9.79864933       6.22157973      20.25611757        0
C        9.76356134       2.67178435      20.30106394        0
C        2.64147041       6.24575616      20.28209064        0
C        7.99495392       4.43433804      20.28679201        0
C        0.88948728       7.99938563      20.27693127        0
C        4.45340099       0.89453292      20.30139748        0
C        4.41927970       4.45530542      20.20043111        0
C        6.25065539       6.21408588      20.27879365        0
C        2.68110830       2.64205780      20.28539773        0
C        7.10484288       5.32741629      21.18816570        0
C        3.54376483       1.77068264      21.21911776        0
C        3.56219031       8.90576469      21.16623552        0
C       -0.02592628       1.76470382      21.12734902        0
C        8.90812851      -0.02192698      21.13411616        0
C        8.88968699       3.53368065      21.23514766        0
C        5.30318305       3.56662682      21.16282982        0
C        5.34963919       0.00802710      21.22869702        0
C        7.09500937       8.89273589      21.17000904        0
C        1.76449985      -0.00487721      21.16142767        0
C        5.35415868       7.10538837      21.18214698        0
C        7.11948556       1.76645236      21.17394372        0
C        0.00583486       8.90287549      21.18366821        0
C        1.74463672       7.09194520      21.18480555        0
C        3.56311063       5.36251166      21.12838227        0
C       -0.00008133       5.31830203      21.19923148        0
C        8.89358457       7.12862830      21.16560057        0
C        1.79149938       3.55642108      21.16849121        0
C        9.79494322       7.99951949      22.05202207        0
C        2.71310646       4.43364586      22.08708240        0
C        6.20412362       4.43765618      22.04477497        0
C        2.64659324       0.88219241      22.06451360        0
C        4.43570690       6.23587532      22.01643789        0
C        6.24756116       7.97472029      22.10207459        0
C        8.00821669       6.23025286      22.09413295        0
C        4.43907423       2.67556914      22.10930924        0
C        0.88522942       9.79620609      22.08787897        0
C        4.45204824       9.76121296      22.09433341        0
C        0.90596657       6.19157426      22.07793734        0
C        0.84985445       2.67188637      22.03377122        0
C        9.80910513       0.85373147      22.03453194        0
C        7.99087972       9.81205069      22.04402881        0
C        7.99563896       2.64421641      22.03141534        0
C        9.76688903       4.44579685      22.12030447        0
C        6.20573426       0.92254033      22.10164171        0
C        2.62869334       8.03322710      22.04483379        0
C        7.10688276      -0.00505742      22.91646176        0
C        0.01279819       7.10918828      22.96213359        0
C        3.54903403      -0.02098659      22.98668641        0
C        1.76471013       8.89315733      22.99174310        0
C        8.91107284       1.74025163      22.93020848        0
C        8.91179157       5.34670575      23.01112618        0
C        8.90008922       8.92330150      22.96963231        0
C       -0.00730934       0.00144586      22.98393171        0
C        5.33274436       1.78619278      22.99856341        0
C        3.57688210       3.56330267      23.00510734        0
C        1.80685765       5.32897194      22.92991175        0
C        3.56008172       7.13892776      22.89609793        0
C        5.33872311       5.34055830      22.96287919        0
C        7.12094377       3.54107046      22.97513580        0
C        7.12776151       7.10712048      23.01749298        0
C        5.33992547       8.87330590      22.93350852        0
C        1.74818875       1.78199357      22.98353684        0
C        0.01104220       3.55889422      22.91812452        0
C        0.89393716       0.88863692      23.89212896        0
C        8.03489417       8.02053260      23.86447628        0
C        0.89851762       4.45022859      23.79814199        0
C        4.47581270       7.98716569      23.86265974        0
C        9.78136707       9.79770493      23.87501784        0
C        2.68733100       6.22792951      23.83639053        0
C        2.68765137       9.76720737      23.90491370        0
C        9.81312485       6.22937454      23.82278512        0
C        8.01207650       0.85874403      23.86805514        0
C        9.81613862       2.65784943      23.85592170        0
C        6.21525248       9.78496307      23.80894495        0
C        2.65472260       2.67295922      23.82702511        0
C        4.47160266       4.43880792      23.89929897        0
C        6.24062351       6.21041580      23.88680748        0
C        6.24587443       2.64244878      23.88805388        0
C        8.02733850       4.44334382      23.89126874        0
C        4.43414074       0.88125456      23.83432971        0
C        0.87501927       8.00262640      23.88686042        0
C        7.16594944       5.35462852      24.79753161        0
C        5.36412343       3.55514531      24.73855459        0
C        8.92642025       7.13020352      24.75854129        0
C       -0.02703936       8.88366575      24.80516090        0
C        3.54881913       1.76161536      24.72072407        0
C        3.55638908       5.33947223      24.76776779        0
C        7.11899274       8.89928906      24.73802809        0
C        1.78604763       7.11532864      24.73639038        0
C        5.32261886       7.09033055      24.76736420        0
C        3.60369695       8.92060843      24.78013993        0
C        1.75990095      -0.03229354      24.74935415        0
C        0.01323655       1.79560879      24.74106372        0
C        8.88849960       3.52838780      24.74237221        0
C        5.33518773      -0.01167313      24.77133396        0
C        7.10191293       1.74002965      24.79774654        0
C        8.91288853       0.01346105      24.74736200        0
C        0.01587656       5.33588212      24.68984117        0
C        1.76671653       3.57316720      24.76580005        0
C        6.20636177       0.87028355      25.65676819        0
C        0.91668571       2.64970238      25.61989138        0
C        8.02418417       9.78490498      25.63713444        0
C        9.77889466       0.91618056      25.64956398        0
C        9.80314185       4.44437490      25.61520762        0
C        8.00408882       2.64923377      25.68440943        0
C        4.47150188       9.79409131      25.69177785        0
C        2.69490443       7.99469150      25.63432854        0
C        0.90010380       6.21793289      25.66332510        0
C        2.64174821       4.46962537      25.69035858        0
C        4.45542475       6.18387362      25.61320350        0
C        6.21292384       8.02353929      25.67688043        0
C        6.26707753       4.42524274      25.64506694        0
C        2.67793819       0.85457735      25.68085817        0
C        9.81179371       7.98438967      25.70806404        0
C        5.33548292       8.87984248      26.60258048        0
C        7.11254469       3.53589598      26.58524567        0
C        8.00128917       6.25904557      25.67985688        0
C        4.42698075       2.68123071      25.63117718        0
C        0.87642327       9.78251269      25.63404915        0
C        3.55403534      -0.00488555      26.58724553        0
C        7.11214224       7.13435257      26.51130267        0
C        8.90932475       8.90124150      26.52539821        0
C        5.30873627       1.78543191      26.58619556        0
C        7.12836081      -0.02713570      26.57323515        0
C        1.78230665       8.90385922      26.59500586        0
C        3.56156358       7.08803883      26.55884202        0
C        8.90469447       5.33313761      26.56099859        0
C        0.02138666       3.54752499      26.55356668        0
C        0.00847988       7.09878258      26.59916862        0
C        1.76558984       5.33731901      26.57594260        0
C        1.79899203       1.77063283      26.53728550        0
C        3.55571940       3.56784840      26.51901965        0
C        5.36109583       5.32187398      26.49092909        0
C       -0.00497166      -0.00030113      26.49115693        0
C        8.90020989       1.76287509      26.58822045        0
C        9.81673547       6.18616706      27.48057070        0
C        8.01128214       4.45169302      27.41588235        0
C        4.51063010       4.41889468      27.44360651        0
C        0.89680542       8.00740191      27.42490957        0
C        2.68878274       6.21683265      27.45453340        0
C        9.80094569       2.65862354      27.44217594        0
C        0.89059037       4.44526311      27.48788421        0
C        0.91451834       0.85088135      27.43434023        0
C        2.64846855       2.70510750      27.43668323        0
C        2.69260736       9.76536561      27.49395713        0
C        4.42432319       0.91200643      27.44014607        0
C        6.24341602       2.65100577      27.50264455        0
C        4.43801831       7.99180258      27.47755500        0
C        6.23864201       9.78006775      27.43113728        0
C        8.01412067       0.87849206      27.47257623        0
C        9.77879578       9.80999036      27.41541076        0
C        8.04501385       7.99642958      27.43659714        0
C        6.22304855       6.24935603      27.41092958        0
C        5.33150676       7.08498965      28.35138555        0
C        1.78068443       3.54245947      28.37361036        0
C        7.13843887       5.36607278      28.30517988        0
C        8.90096307       3.56086722      28.34709774        0
C        0.00896756       5.33040882      28.39476361        0
C        5.37123792       3.55931432      28.33538889        0
C        8.89886284      -0.00842717      28.37128342        0
C        0.00290643       1.74554197      28.35164812        0
C        1.79161628      -0.00955267      28.31024963        0
C        3.56415457       8.88330569      28.40307079        0
C       -0.01101354       8.91406856      28.31437183        0
C        1.78088019       7.11883985      28.35906353        0
C        3.58831104       5.30529011      28.36593469        0
C        7.10936405       1.75530226      28.40192174        0
C        8.89576246       7.10206437      28.32066001        0
C        7.14333822       8.89286693      28.32684689        0
C        5.33724639      -0.00544747      28.35039274        0
C        3.54944895       1.80854904      28.31545552        0
C        8.01561008       9.77739428      29.22488074        0
C        4.44045430       2.69554402      29.25774955        0
C        7.99247160       6.25097885      29.21486948        0
C        6.27377682       4.44825952      29.20848678        0
C        6.24135156       8.00294166      29.25554787        0
C        4.45403082       6.21083587      29.23167096        0
C        2.68181352       4.43493947      29.28021237        0
C        0.89712068       2.64374321      29.21832195        0
C        9.79346839       0.86723033      29.27278231        0
C        2.69316046       0.88169239      29.17307379        0
C        0.87329172       9.81376112      29.26951795        0
C        9.80929371       7.98849587      29.21150920        0
C        6.20726449       0.88675639      29.25061122        0
C        9.77957373       4.44850758      29.21107509        0
C        2.64221457       8.03208977      29.25810583        0
C        4.48336217       9.76516204      29.25517770        0
C        8.04495430       2.64711624      29.27721424        0
C        0.91579915       6.20525092      29.28981938        0
C       -0.01418040       3.55146713      30.15050689        0
C        8.92207602       1.78819217      30.19247528        0
C        1.76647684       8.91296763      30.09989366        0
C        7.10813461      -0.00134290      30.17071616        0
C        0.01824613       7.11656427      30.08474753        0
C        0.01927743       0.00227707      30.16058548        0
C        8.93033624       8.89938284      30.14906816        0
C        5.35501209       8.88883791      30.17649512        0
C        7.13440378       7.12453362      30.16057826        0
C        8.90446145       5.33288971      30.09940426        0
C        7.13864001       3.55132696      30.08651103        0
C        5.36455948       5.31628913      30.15033500        0
C        3.57583118       7.11670996      30.19282691        0
C        1.77939116       5.29941920      30.20182859        0
C        3.57246393       3.55173452      30.16507442        0
C        5.33874565       1.78916849      30.09822350        0
C        3.58937371      -0.02257235      30.10699747        0
C        1.81315081       1.75550290      30.14747891        0
C        2.70383868       2.64031916      31.03786499        0
C        8.01937488       8.02624336      31.03517963        0
C        9.81797354       9.77140676      31.02524175        0
C        0.91563614       0.89454290      31.07487073        0
C        4.46193967       4.44046317      31.02195603        0
C        6.24486300       6.22151535      31.05300216        0
C        4.45862344       0.90502018      31.04154837        0
C        6.24293440       9.79930135      31.08889453        0
C        6.23353226       2.66568760      31.00298915        0
C        8.01802196       4.43752750      31.03961660        0
C        2.68089672       9.78539279      31.03740347        0
C        0.89944161       8.00426822      30.99940328        0
C        9.81429117       6.21584053      30.99030091        0
C        4.46527656       7.98314788      31.10072470        0
C        2.69783846       6.19310714      31.03805174        0
C        8.02593984       0.86848195      31.01909839        0
C        9.80519052       2.66159958      31.07008739        0
C        0.86634718       4.44674613      31.05087744        0
C       -0.01134140       5.32522596      31.96875909        0
C        8.90312002       3.54401919      31.99385087        0
C        5.36818305       7.09550550      31.99704878        0
C        7.12188720       5.31002659      31.91390704        0
C        3.59808893       5.33475757      31.91514617        0
C        7.13986061       1.78483536      31.94449966        0
C        5.31284082       3.52512688      31.91670497        0
C        8.90674181       7.09231706      31.86691811        0
C        7.13901942       8.88788308      31.97729481        0
C        1.78908237       3.54058622      31.89058234        0
C        3.53161935       1.74141441      31.96984495        0
C        0.00205925       1.76661779      31.95588480        0
C        1.79346129      -0.02154645      31.97632297        0
C        3.57187960       8.89297086      31.95294455        0
C        5.36280627       0.01211775      31.93401950        0
C        8.91220434      -0.04422789      31.91361364        0
C        0.03960586       8.89373121      31.92578872        0
C        1.77430257       7.08777232      31.89808940        0
C        6.24266603       0.89484373      32.79776312        0
C        8.01258999       6.20436542      32.82157087        0
C        2.66088235       7.97286103      32.84723951        0
C        9.81617475       7.96816053      32.78331143        0
C        4.47182166       9.77795001      32.86731970        0
C        6.22829610       4.40309294      32.84860880        0
C        0.89837686       6.19808171      32.77985911        0
C        9.78819644       4.45173546      32.87192324        0
C        8.02336273       2.63600939      32.87093051        0
C        0.91013290       9.76826744      32.84840759        0
C        2.68884877       0.85387371      32.88672858        0
C        4.42407560       2.65651954      32.80764354        0
C        8.02929110       9.77240427      32.79706177        0
C        4.46772154       6.18579483      32.86949946        0
C        0.91245400       2.66580549      32.84983223        0
C        9.79944612       0.83759244      32.85258271        0
C        6.27303288       7.96615160      32.88264332        0
C        2.68492490       4.42968277      32.75238369        0
C        5.32379198       5.29183934      33.76410363        0
C        7.10781479      -0.00808852      33.70792928        0
C        1.80251986       1.78324492      33.78067255        0
C        3.53328161       3.56189252      33.71595197        0
C        5.33698215       1.77969577      33.68660547        0
C        7.12298009       7.06169478      33.75291743        0
C        8.87142137       1.72129359      33.77913997        0
C        7.12990513       3.54957548      33.70262160        0
C        8.92154405       8.87343862      33.68006156        0
C        0.01463066       7.08907481      33.72559547        0
C        0.03560803      -0.00251814      33.73949801        0
C        1.76333253       8.85337100      33.76899556        0
C        3.56652314       7.09561111      33.69483741        0
C        1.76408433       5.28687433      33.65463534        0
C        5.38167438       8.90677714      33.75114109        0
C        3.56218826      -0.04140935      33.72651808        0
C       -0.02294748       3.52126709      33.71565421        0
C        8.91717658       5.35920949      33.75083690        0
C        8.01186784       4.45410414      34.60039913        0
C        0.84846882       4.39933905      34.55852866        0
C        4.46752442       7.99301953      34.59337082        0
C        2.66893417       6.22774980      34.52943081        0
C        4.39951348       4.42240377      34.67714589        0
C        2.69019489       9.74548077      34.61288789        0
C        0.91533914       0.86590665      34.61408346        0
C        2.68098925       2.70179491      34.69010281        0
C        0.86595983       7.97006948      34.66459242        0
C        9.81583299       6.23795960      34.65635140        0
C        9.82265407       9.80425829      34.56895796        0
C        7.99850992       7.96602754      34.56318160        0
C        6.22277875       6.19634482      34.64227198        0
C        6.24628019       9.82045109      34.66424769        0
C        7.95180319       0.86001721      34.68080377        0
C        9.78281719       2.63833901      34.61594789        0
C        4.42361474       0.86823912      34.55167852        0
C        6.23975595       2.69422994      34.55561715        0
C        7.01142188       1.80769433      35.53589897        0
C        8.89681446       7.13606372      35.50007148        0
C        5.30679299       0.07233500      35.51392086        0
C        0.03714539       5.30816324      35.48726387        0
C        7.14724295       8.87703586      35.48861722        0
C        8.92086391      -0.01726221      35.52731362        0
C       -0.00643806       8.92054100      35.52735368        0
C        1.78459265       7.04535231      35.48307884        0
C        3.46135291       5.36007192      35.50518437        0
C        5.34405020       3.49623338      35.51030591        0
C        3.60718239       1.76792646      35.49708954        0
C        1.73469091       3.61683923      35.55815321        0
C        7.14142960       5.33180646      35.49427458        0
C        8.88584912       3.58090717      35.46524325        0
C        0.01307160       1.72016780      35.47253040        0
C        5.33850569       7.12599447      35.48737356        0
C        3.59733402       8.86710082      35.46413170        0
C        1.82652355      -0.04257354      35.46521555        0
C        0.84484488       2.60841102      36.45739124        0
C        2.68062282       7.98187786      36.39103246        0
C        4.44351574       6.18679505      36.44580546        0
C        2.24436357       4.85900447      36.24466202        0
C        9.77564893       4.40936013      36.41661595        0
C        1.24354318       5.84660006      36.21760516        0
C        6.19668590       4.44076629      36.47293563        0
C        2.65855542       0.86819173      36.42598076        0
C        4.80756303       2.29770819      36.22311104        0
C        8.03982871       2.68759701      36.43004593        0
C        5.79537506       1.30080884      36.26196589        0
C        4.45526933       9.80124404      36.40604204        0
C        6.23241072       8.01266651      36.41356715        0
C        8.28189025       9.51303637      36.22876037        0
C        9.83778131       0.90696582      36.44713832        0
C        8.02477317       6.23029296      36.42272688        0
C        9.53048631       8.27403248      36.24006284        0
C        0.95173945       9.80347978      36.45570168        0
C        6.95325361       6.94919130      37.17063522        0
C        0.38568209       0.35806783      37.14897603        0
C        8.71068454       5.12232105      37.16749384        0
C       -0.45675317       3.15935251      37.16999588        0
C        9.25710911       2.14719742      37.12111076        0
C        7.28261139       3.69107902      37.19193275        0
C        1.35299654       1.37625938      37.13238641        0
C        3.31153024      -0.25984427      37.15893694        0
C        5.14562856       8.72219673      37.14588508        0
C        2.14579380       9.20944134      37.13104126        0
C        3.67067869       7.26719885      37.20506373        0
C        5.43466724       5.44466740      37.04937264        0
C        8.90046907       8.89289608      37.32272238        0
